     Program PWSCF v.5.4.0 starts on 19Mar2020 at 19: 3:16

     Current dimensions of program PWSCF are:
     Max number of different atomic species (ntypx) = 10
     Max number of k-points (npk) =  40000
     Max angular momentum in pseudopotentials (lmaxx) =  3
     Message from routine setup:
     At least one non s.o. pseudo

     Subspace diagonalization in iterative solution of the eigenvalue problem:
     a serial algorithm will be used

     Title:
     Sn

     bravais-lattice index     =            0
     lattice parameter (alat)  =       8.8927  a.u.
     unit-cell volume          =     497.2569 (a.u.)^3
     number of atoms/cell      =            2
     number of atomic types    =            1
     number of electrons       =        28.00
     number of Kohn-Sham states=           40
     kinetic-energy cutoff     =     150.0000  Ry
     charge density cutoff     =     600.0000  Ry
     convergence threshold     =      1.0E-06
     mixing beta               =       0.7000
     number of iterations used =            8  plain     mixing
     Exchange-correlation      = PBE ( 1  4  3  4 0 0)
     Non magnetic calculation with spin-orbit

     celldm(1)=   8.892665  celldm(2)=   0.000000  celldm(3)=   0.000000
     celldm(4)=   0.000000  celldm(5)=   0.000000  celldm(6)=   0.000000

     crystal axes: (cart. coord. in units of alat)
               a(1) = (   0.000000   0.707107   0.707107 )
               a(2) = (   0.707107   0.000000   0.707107 )
               a(3) = (   0.707107   0.707107   0.000000 )

     reciprocal axes: (cart. coord. in units 2 pi/alat)
               b(1) = ( -0.707107  0.707107  0.707107 )
               b(2) = (  0.707107 -0.707107  0.707107 )
               b(3) = (  0.707107  0.707107 -0.707107 )

     PseudoPot. # 1 for Sn read from file:
     ../PseudopotentialDatabase/Sn_ONCV_PBE-1.0.upf
     MD5 check sum: 4ecdb67ea6112684f1b2ae1cab9d4ca6
     Pseudo is Norm-conserving, Zval = 14.0
     Generated using ONCVPSP code by D. R. Hamann
     Using radial grid of  602 points,  6 beta functions with:
                l(1) =   0
                l(2) =   0
                l(3) =   1
                l(4) =   1
                l(5) =   2
                l(6) =   2

     atomic species   valence    mass     pseudopotential
        Sn            14.00   118.71000     Sn( 1.00)

     48 Sym. Ops., with inversion, found (24 have fractional translation)

                                    s                        frac. trans.

      isym =  1     identity

 cryst.   s( 1) = (     1          0          0      )
                  (     0          1          0      )
                  (     0          0          1      )

 cart.    s( 1) = (  1.0000000  0.0000000  0.0000000 )
                  (  0.0000000  1.0000000  0.0000000 )
                  (  0.0000000  0.0000000  1.0000000 )

      isym =  2     180 deg rotation - cart. axis [0,0,1]

[...]

 cryst.   s( 4) = (    -1          0          0      )
                  (    -1          0          1      )
                  (    -1          1          0      )

 cart.    s( 4) = (  1.0000000  0.0000000  0.0000000 )
                  (  0.0000000 -1.0000000  0.0000000 )
                  (  0.0000000  0.0000000 -1.0000000 )

[...]

 cryst.   s( 5) = (    -1          0          1      )    f =( -0.2500000 )
                  (     0         -1          1      )       ( -0.2500000 )
                  (     0          0          1      )       ( -0.2500000 )

 cart.    s( 5) = (  0.0000000  1.0000000  0.0000000 )    f =( -0.3535534 )
                  (  1.0000000  0.0000000  0.0000000 )       ( -0.3535534 )
                  (  0.0000000  0.0000000 -1.0000000 )       ( -0.3535534 )

[...]

 cryst.   s( 9) = (    -1          1          0      )    f =( -0.2500000 )
                  (     0          1          0      )       ( -0.2500000 )
                  (     0          1         -1      )       ( -0.2500000 )

 cart.    s( 9) = (  0.0000000  0.0000000  1.0000000 )    f =( -0.3535534 )
                  (  0.0000000 -1.0000000  0.0000000 )       ( -0.3535534 )
                  (  1.0000000  0.0000000  0.0000000 )       ( -0.3535534 )

[...]

 cryst.   s(10) = (     0          0         -1      )    f =( -0.2500000 )
                  (     0         -1          0      )       ( -0.2500000 )
                  (    -1          0          0      )       ( -0.2500000 )

 cart.    s(10) = (  0.0000000  0.0000000 -1.0000000 )    f =( -0.3535534 )
                  (  0.0000000 -1.0000000  0.0000000 )       ( -0.3535534 )
                  ( -1.0000000  0.0000000  0.0000000 )       ( -0.3535534 )

[...]

 cryst.   s(17) = (     0          0          1      )
                  (     1          0          0      )
                  (     0          1          0      )

 cart.    s(17) = (  0.0000000  1.0000000  0.0000000 )
                  (  0.0000000  0.0000000  1.0000000 )
                  (  1.0000000  0.0000000  0.0000000 )

[...]

      isym = 24     120 deg rotation - cart. axis [-1,-1,1]

[...]

      isym = 25     inversion

[...]

      isym = 26     inv. 180 deg rotation - cart. axis [0,0,1]

[...]

 cryst.   s(40) = (     0         -1          1      )
                  (     1         -1          0      )
                  (     0         -1          0      )

 cart.    s(40) = ( -1.0000000  0.0000000  0.0000000 )
                  (  0.0000000  0.0000000  1.0000000 )
                  (  0.0000000 -1.0000000  0.0000000 )

[...]

      isym = 48     inv. 120 deg rotation - cart. axis [-1,-1,1]

 cryst.   s(48) = (     0          1          0      )    f =( -0.2500000 )
                  (    -1          1          0      )       ( -0.2500000 )
                  (     0          1         -1      )       ( -0.2500000 )

 cart.    s(48) = (  0.0000000  0.0000000  1.0000000 )    f =( -0.3535534 )
                  ( -1.0000000  0.0000000  0.0000000 )       ( -0.3535534 )
                  (  0.0000000  1.0000000  0.0000000 )       ( -0.3535534 )

   Cartesian axes

     site n.     atom                  positions (alat units)
         1           Sn  tau(   1) = (   0.0000000   0.0000000   0.0000000  )
         2           Sn  tau(   2) = (   0.3535534   0.3535534   0.3535534  )

   Crystallographic axes

     site n.     atom                  positions (cryst. coord.)
         1           Sn  tau(   1) = (  0.0000000  0.0000000  0.0000000  )
         2           Sn  tau(   2) = (  0.2500000  0.2500000  0.2500000  )

     number of k points=  2300  gaussian smearing, width (Ry)=  0.0001
                       cart. coord. in units 2pi/alat
        k(    1) = (   0.0000000   0.0000000   0.0000000), wk =   0.0000110
        k(    2) = (   0.0157135   0.0157135  -0.0157135), wk =   0.0000878
        k(    3) = (   0.0314270   0.0314270  -0.0314270), wk =   0.0000878
        k(    4) = (   0.0471405   0.0471405  -0.0471405), wk =   0.0000878
        k(    5) = (   0.0628539   0.0628539  -0.0628539), wk =   0.0000878
        k(    6) = (   0.0785674   0.0785674  -0.0785674), wk =   0.0000878
        k(    7) = (   0.0942809   0.0942809  -0.0942809), wk =   0.0000878
        k(    8) = (   0.1099944   0.1099944  -0.1099944), wk =   0.0000878
        k(    9) = (   0.1257079   0.1257079  -0.1257079), wk =   0.0000878
        k(   10) = (   0.1414214   0.1414214  -0.1414214), wk =   0.0000878
        k(   11) = (   0.1571348   0.1571348  -0.1571348), wk =   0.0000878
        k(   12) = (   0.1728483   0.1728483  -0.1728483), wk =   0.0000878
        k(   13) = (   0.1885618   0.1885618  -0.1885618), wk =   0.0000878
        k(   14) = (   0.2042753   0.2042753  -0.2042753), wk =   0.0000878
        k(   15) = (   0.2199888   0.2199888  -0.2199888), wk =   0.0000878
        k(   16) = (   0.2357023   0.2357023  -0.2357023), wk =   0.0000878
        k(   17) = (   0.2514157   0.2514157  -0.2514157), wk =   0.0000878
        k(   18) = (   0.2671292   0.2671292  -0.2671292), wk =   0.0000878
        k(   19) = (   0.2828427   0.2828427  -0.2828427), wk =   0.0000878
        k(   20) = (   0.2985562   0.2985562  -0.2985562), wk =   0.0000878
        k(   21) = (   0.3142697   0.3142697  -0.3142697), wk =   0.0000878
        k(   22) = (   0.3299832   0.3299832  -0.3299832), wk =   0.0000878
        k(   23) = (   0.3456966   0.3456966  -0.3456966), wk =   0.0000878
        k(   24) = (   0.0314270   0.0000000   0.0000000), wk =   0.0000658
        k(   25) = (   0.0471405   0.0157135  -0.0157135), wk =   0.0002634
        k(   26) = (   0.0628539   0.0314270  -0.0314270), wk =   0.0002634
        k(   27) = (   0.0785674   0.0471405  -0.0471405), wk =   0.0002634
        k(   28) = (   0.0942809   0.0628539  -0.0628539), wk =   0.0002634
        k(   29) = (   0.1099944   0.0785674  -0.0785674), wk =   0.0002634
        k(   30) = (   0.1257079   0.0942809  -0.0942809), wk =   0.0002634
        k(   31) = (   0.1414214   0.1099944  -0.1099944), wk =   0.0002634
        k(   32) = (   0.1571348   0.1257079  -0.1257079), wk =   0.0002634
        k(   33) = (   0.1728483   0.1414214  -0.1414214), wk =   0.0002634
        k(   34) = (   0.1885618   0.1571348  -0.1571348), wk =   0.0002634
        k(   35) = (   0.2042753   0.1728483  -0.1728483), wk =   0.0002634
        k(   36) = (   0.2199888   0.1885618  -0.1885618), wk =   0.0002634
        k(   37) = (   0.2357023   0.2042753  -0.2042753), wk =   0.0002634
        k(   38) = (   0.2514157   0.2199888  -0.2199888), wk =   0.0002634
        k(   39) = (   0.2671292   0.2357023  -0.2357023), wk =   0.0002634
        k(   40) = (   0.2828427   0.2514157  -0.2514157), wk =   0.0002634
        k(   41) = (   0.2985562   0.2671292  -0.2671292), wk =   0.0002634
        k(   42) = (   0.3142697   0.2828427  -0.2828427), wk =   0.0002634
        k(   43) = (   0.3299832   0.2985562  -0.2985562), wk =   0.0002634
        k(   44) = (   0.3456966   0.3142697  -0.3142697), wk =   0.0002634
        k(   45) = (   0.3614101   0.3299832  -0.3299832), wk =   0.0002634
        k(   46) = (  -0.3299832  -0.3614101   0.3614101), wk =   0.0002634
        k(   47) = (  -0.3142697  -0.3456966   0.3456966), wk =   0.0002634
        k(   48) = (  -0.2985562  -0.3299832   0.3299832), wk =   0.0002634
        k(   49) = (  -0.2828427  -0.3142697   0.3142697), wk =   0.0002634
        k(   50) = (  -0.2671292  -0.2985562   0.2985562), wk =   0.0002634
        k(   51) = (  -0.2514157  -0.2828427   0.2828427), wk =   0.0002634
        k(   52) = (  -0.2357023  -0.2671292   0.2671292), wk =   0.0002634
        k(   53) = (  -0.2199888  -0.2514157   0.2514157), wk =   0.0002634
        k(   54) = (  -0.2042753  -0.2357023   0.2357023), wk =   0.0002634
        k(   55) = (  -0.1885618  -0.2199888   0.2199888), wk =   0.0002634
        k(   56) = (  -0.1728483  -0.2042753   0.2042753), wk =   0.0002634
        k(   57) = (  -0.1571348  -0.1885618   0.1885618), wk =   0.0002634
        k(   58) = (  -0.1414214  -0.1728483   0.1728483), wk =   0.0002634
        k(   59) = (  -0.1257079  -0.1571348   0.1571348), wk =   0.0002634
        k(   60) = (  -0.1099944  -0.1414214   0.1414214), wk =   0.0002634
[...]
        k( 2286) = (  -0.0314270  -0.4085506   0.6913933), wk =   0.0005267
        k( 2287) = (  -0.0157135  -0.3928371   0.6756798), wk =   0.0005267
        k( 2288) = (  -0.0000000  -0.3771236   0.6599663), wk =   0.0002634
        k( 2289) = (  -0.0157135  -0.4242641   0.7071068), wk =   0.0002634
        k( 2290) = (   0.0000000  -0.4085506   0.6913933), wk =   0.0002634
        k( 2291) = (  -0.0785674  -0.3928371   0.7071068), wk =   0.0002634
        k( 2292) = (  -0.0628539  -0.3771236   0.6913933), wk =   0.0005267
        k( 2293) = (  -0.0471405  -0.3614101   0.6756798), wk =   0.0005267
        k( 2294) = (  -0.0471405  -0.3928371   0.7071068), wk =   0.0002634
        k( 2295) = (  -0.0314270  -0.3771236   0.6913933), wk =   0.0005267
        k( 2296) = (  -0.0157135  -0.3614101   0.6756798), wk =   0.0005267
        k( 2297) = (   0.0000000  -0.3456966   0.6599663), wk =   0.0002634
        k( 2298) = (  -0.0157135  -0.3928371   0.7071068), wk =   0.0002634
        k( 2299) = (  -0.0000000  -0.3771236   0.6913933), wk =   0.0002634
        k( 2300) = (  -0.0157135  -0.3614101   0.7071068), wk =   0.0002634

                       cryst. coord.
        k(    1) = (   0.0000000   0.0000000   0.0000000), wk =   0.0000110
        k(    2) = (   0.0000000   0.0000000   0.0222222), wk =   0.0000878
        k(    3) = (   0.0000000   0.0000000   0.0444444), wk =   0.0000878
        k(    4) = (   0.0000000   0.0000000   0.0666667), wk =   0.0000878
        k(    5) = (   0.0000000   0.0000000   0.0888889), wk =   0.0000878
        k(    6) = (   0.0000000   0.0000000   0.1111111), wk =   0.0000878
        k(    7) = (   0.0000000   0.0000000   0.1333333), wk =   0.0000878
        k(    8) = (   0.0000000   0.0000000   0.1555556), wk =   0.0000878
        k(    9) = (   0.0000000   0.0000000   0.1777778), wk =   0.0000878
        k(   10) = (   0.0000000   0.0000000   0.2000000), wk =   0.0000878
        k(   11) = (   0.0000000   0.0000000   0.2222222), wk =   0.0000878
        k(   12) = (   0.0000000   0.0000000   0.2444444), wk =   0.0000878
        k(   13) = (   0.0000000   0.0000000   0.2666667), wk =   0.0000878
        k(   14) = (   0.0000000   0.0000000   0.2888889), wk =   0.0000878
        k(   15) = (   0.0000000   0.0000000   0.3111111), wk =   0.0000878
        k(   16) = (   0.0000000   0.0000000   0.3333333), wk =   0.0000878
        k(   17) = (   0.0000000   0.0000000   0.3555556), wk =   0.0000878
        k(   18) = (   0.0000000   0.0000000   0.3777778), wk =   0.0000878
        k(   19) = (   0.0000000   0.0000000   0.4000000), wk =   0.0000878
        k(   20) = (   0.0000000   0.0000000   0.4222222), wk =   0.0000878
        k(   21) = (   0.0000000   0.0000000   0.4444444), wk =   0.0000878
        k(   22) = (   0.0000000   0.0000000   0.4666667), wk =   0.0000878
        k(   23) = (   0.0000000   0.0000000   0.4888889), wk =   0.0000878
        k(   24) = (   0.0000000   0.0222222   0.0222222), wk =   0.0000658
        k(   25) = (   0.0000000   0.0222222   0.0444444), wk =   0.0002634
        k(   26) = (   0.0000000   0.0222222   0.0666667), wk =   0.0002634
        k(   27) = (   0.0000000   0.0222222   0.0888889), wk =   0.0002634
        k(   28) = (   0.0000000   0.0222222   0.1111111), wk =   0.0002634
        k(   29) = (   0.0000000   0.0222222   0.1333333), wk =   0.0002634
        k(   30) = (   0.0000000   0.0222222   0.1555556), wk =   0.0002634
        k(   31) = (   0.0000000   0.0222222   0.1777778), wk =   0.0002634
        k(   32) = (   0.0000000   0.0222222   0.2000000), wk =   0.0002634
        k(   33) = (   0.0000000   0.0222222   0.2222222), wk =   0.0002634
        k(   34) = (   0.0000000   0.0222222   0.2444444), wk =   0.0002634
        k(   35) = (   0.0000000   0.0222222   0.2666667), wk =   0.0002634
        k(   36) = (   0.0000000   0.0222222   0.2888889), wk =   0.0002634
        k(   37) = (   0.0000000   0.0222222   0.3111111), wk =   0.0002634
        k(   38) = (   0.0000000   0.0222222   0.3333333), wk =   0.0002634
        k(   39) = (   0.0000000   0.0222222   0.3555556), wk =   0.0002634
        k(   40) = (   0.0000000   0.0222222   0.3777778), wk =   0.0002634
        k(   41) = (   0.0000000   0.0222222   0.4000000), wk =   0.0002634
        k(   42) = (   0.0000000   0.0222222   0.4222222), wk =   0.0002634
        k(   43) = (   0.0000000   0.0222222   0.4444444), wk =   0.0002634
        k(   44) = (   0.0000000   0.0222222   0.4666667), wk =   0.0002634
        k(   45) = (   0.0000000   0.0222222   0.4888889), wk =   0.0002634
        k(   46) = (   0.0000000   0.0222222  -0.4888889), wk =   0.0002634
        k(   47) = (   0.0000000   0.0222222  -0.4666667), wk =   0.0002634
        k(   48) = (   0.0000000   0.0222222  -0.4444444), wk =   0.0002634
        k(   49) = (   0.0000000   0.0222222  -0.4222222), wk =   0.0002634
        k(   50) = (   0.0000000   0.0222222  -0.4000000), wk =   0.0002634
        k(   51) = (   0.0000000   0.0222222  -0.3777778), wk =   0.0002634
        k(   52) = (   0.0000000   0.0222222  -0.3555556), wk =   0.0002634
        k(   53) = (   0.0000000   0.0222222  -0.3333333), wk =   0.0002634
        k(   54) = (   0.0000000   0.0222222  -0.3111111), wk =   0.0002634
        k(   55) = (   0.0000000   0.0222222  -0.2888889), wk =   0.0002634
        k(   56) = (   0.0000000   0.0222222  -0.2666667), wk =   0.0002634
        k(   57) = (   0.0000000   0.0222222  -0.2444444), wk =   0.0002634
        k(   58) = (   0.0000000   0.0222222  -0.2222222), wk =   0.0002634
        k(   59) = (   0.0000000   0.0222222  -0.2000000), wk =   0.0002634
        k(   60) = (   0.0000000   0.0222222  -0.1777778), wk =   0.0002634
[...]
        k( 2286) = (   0.2000000   0.4666667  -0.3111111), wk =   0.0005267
        k( 2287) = (   0.2000000   0.4666667  -0.2888889), wk =   0.0005267
        k( 2288) = (   0.2000000   0.4666667  -0.2666667), wk =   0.0002634
        k( 2289) = (   0.2000000   0.4888889  -0.3111111), wk =   0.0002634
        k( 2290) = (   0.2000000   0.4888889  -0.2888889), wk =   0.0002634
        k( 2291) = (   0.2222222   0.4444444  -0.3333333), wk =   0.0002634
        k( 2292) = (   0.2222222   0.4444444  -0.3111111), wk =   0.0005267
        k( 2293) = (   0.2222222   0.4444444  -0.2888889), wk =   0.0005267
        k( 2294) = (   0.2222222   0.4666667  -0.3111111), wk =   0.0002634
        k( 2295) = (   0.2222222   0.4666667  -0.2888889), wk =   0.0005267
        k( 2296) = (   0.2222222   0.4666667  -0.2666667), wk =   0.0005267
        k( 2297) = (   0.2222222   0.4666667  -0.2444444), wk =   0.0002634
        k( 2298) = (   0.2222222   0.4888889  -0.2888889), wk =   0.0002634
        k( 2299) = (   0.2222222   0.4888889  -0.2666667), wk =   0.0002634
        k( 2300) = (   0.2444444   0.4888889  -0.2666667), wk =   0.0002634

     Largest allocated arrays     est. size (Mb)     dimensions
     Largest temporary arrays     est. size (Mb)     dimensions

     Initial potential from superposition of free atoms

     starting charge   27.82674, renormalised to   28.00000
     Starting wfc are random

     Self-consistent Calculation

     iteration #  1     ecut=   150.00 Ry     beta=0.70
     Davidson diagonalization with overlap
     ethr =  1.00E-02,  avg # of iterations =  9.1

     Threshold (ethr) on eigenvalues was too large:
     Diagonalizing with lowered threshold

     Davidson diagonalization with overlap
     ethr =  1.15E-04,  avg # of iterations =  6.0

     total energy              =    -256.21704619 Ry
     Harris-Foulkes estimate   =    -256.22990085 Ry
     estimated scf accuracy    <       0.03217983 Ry

[...]

     total energy              =    -256.22170786 Ry
     Harris-Foulkes estimate   =    -256.22168958 Ry
     estimated scf accuracy    <       0.00010727 Ry

     iteration #  4     ecut=   150.00 Ry     beta=0.70
     Davidson diagonalization with overlap
     ethr =  3.83E-07,  avg # of iterations =  2.1

     End of self-consistent calculation

          k = 0.0000 0.0000 0.0000 ( 15473 PWs)   bands (ev):

   -14.0332 -14.0332 -14.0332 -14.0332 -14.0332 -14.0332 -13.9838 -13.9838
   -13.9838 -13.9838 -13.7321 -13.7321 -13.7321 -13.7321 -13.7321 -13.7321
   -13.7308 -13.7308 -13.7308 -13.7308  -2.5632  -2.5632   6.4048   6.4048
     7.6456   7.6456   7.6456   7.6456   7.6456   7.6456   9.4379   9.4379
     9.4386   9.4386   9.7121   9.7121   9.7121   9.7121   9.7121   9.7121

     occupation numbers
     1.0000   1.0000   1.0000   1.0000   1.0000   1.0000   1.0000   1.0000
     1.0000   1.0000   1.0000   1.0000   1.0000   1.0000   1.0000   1.0000
     1.0000   1.0000   1.0000   1.0000   1.0000   1.0000   1.0000   1.0000
     0.0000   0.0000   0.0000   0.0000   0.0000   0.0000   0.0000   0.0000
     0.0000   0.0000   0.0000   0.0000   0.0000   0.0000   0.0000   0.0000

[...]

          k =-0.3300-0.3614 0.3614 ( 15382 PWs)   bands (ev):

[...]

          k = 0.0000-0.3457 0.6600 ( 15391 PWs)   bands (ev):

[...]

          k =-0.0157-0.3614 0.7071 ( 15398 PWs)   bands (ev):

   -14.0896 -14.0896 -14.0884 -14.0884 -13.9216 -13.9216 -13.9129 -13.9129
   -13.8655 -13.8655 -13.8588 -13.8588 -13.8307 -13.8307 -13.8233 -13.8233
   -13.6593 -13.6593 -13.6581 -13.6581   0.2537   0.2537   0.4101   0.4101
     4.7769   4.7769   4.8761   4.8761   9.4377   9.4377   9.4377   9.4377
    10.6931  10.6931  10.8088  10.8088  11.5186  11.5186  11.6613  11.6613

     occupation numbers
     1.0000   1.0000   1.0000   1.0000   1.0000   1.0000   1.0000   1.0000
     1.0000   1.0000   1.0000   1.0000   1.0000   1.0000   1.0000   1.0000
     1.0000   1.0000   1.0000   1.0000   1.0000   1.0000   1.0000   1.0000
     1.0000   1.0000   1.0000   1.0000   0.0000   0.0000   0.0000   0.0000
     0.0000   0.0000   0.0000   0.0000   0.0000   0.0000   0.0000   0.0000

     the Fermi energy is     7.5571 ev

!    total energy              =    -256.22171661 Ry
     Harris-Foulkes estimate   =    -256.22171609 Ry
     estimated scf accuracy    <       0.00000093 Ry

     The total energy is the sum of the following terms:

     one-electron contribution =    -135.98154991 Ry
     hartree contribution      =      79.14331942 Ry
     xc contribution           =     -31.47608792 Ry
     ewald contribution        =    -167.90739818 Ry
     smearing contrib. (-TS)   =      -0.00000001 Ry

     convergence has been achieved in   4 iterations

     Writing output data file Sn.save

     General routines

     Parallel routines

   This run was terminated on:  19:28:27  19Mar2020

   JOB DONE.