     Program PWSCF v.5.4.0 starts on  8Mar2020 at 21:10:46

     Current dimensions of program PWSCF are:
     Max number of different atomic species (ntypx) = 10
     Max number of k-points (npk) =  40000
     Max angular momentum in pseudopotentials (lmaxx) =  3
               file Sn.rel-pbe-dn-kjpaw_psl.1.0.0.UPF: wavefunction(s)  5S 5P 5P 4D 4D renormalized

     Subspace diagonalization in iterative solution of the eigenvalue problem:
     a serial algorithm will be used

     Title:
     Sn

     bravais-lattice index     =            0
     lattice parameter (alat)  =       8.7524  a.u.
     unit-cell volume          =     474.0897 (a.u.)^3
     number of atoms/cell      =            2
     number of atomic types    =            1
     number of electrons       =        28.00
     number of Kohn-Sham states=           36
     kinetic-energy cutoff     =      40.0000  Ry
     charge density cutoff     =     160.0000  Ry
     convergence threshold     =      1.0E-06
     mixing beta               =       0.7000
     number of iterations used =            8  plain     mixing
     Exchange-correlation      =  SLA  PW   PBX  PBC ( 1  4  3  4 0 0)
     Non magnetic calculation with spin-orbit

     celldm(1)=   8.752360  celldm(2)=   0.000000  celldm(3)=   0.000000
     celldm(4)=   0.000000  celldm(5)=   0.000000  celldm(6)=   0.000000

     crystal axes: (cart. coord. in units of alat)
               a(1) = (   0.000000   0.707107   0.707107 )
               a(2) = (   0.707107   0.000000   0.707107 )
               a(3) = (   0.707107   0.707107   0.000000 )

     reciprocal axes: (cart. coord. in units 2 pi/alat)
               b(1) = ( -0.707107  0.707107  0.707107 )
               b(2) = (  0.707107 -0.707107  0.707107 )
               b(3) = (  0.707107  0.707107 -0.707107 )

     PseudoPot. # 1 for Sn read from file:
     ../PseudopotentialDatabase/Sn.rel-pbe-dn-kjpaw_psl.1.0.0.UPF
     MD5 check sum: 6bcaba2b82cf8d008985ef5bb9854e68
     Pseudo is Projector augmented-wave + core cor, Zval = 14.0
     Generated using "atomic" code by A. Dal Corso  v.6.3
     Shape of augmentation charge: PSQ
     Using radial grid of 1243 points, 10 beta functions with:
                l(1) =   0
                l(2) =   0
                l(3) =   1
                l(4) =   1
                l(5) =   1
                l(6) =   1
                l(7) =   2
                l(8) =   2
                l(9) =   2
               l(10) =   2
     Q(r) pseudized with 0 coefficients

     atomic species   valence    mass     pseudopotential
        Sn            14.00   118.71000     Sn( 1.00)

     48 Sym. Ops., with inversion, found (24 have fractional translation)

                                    s                        frac. trans.

      isym =  1     identity

 cryst.   s( 1) = (     1          0          0      )
                  (     0          1          0      )
                  (     0          0          1      )

 cart.    s( 1) = (  1.0000000  0.0000000  0.0000000 )
                  (  0.0000000  1.0000000  0.0000000 )
                  (  0.0000000  0.0000000  1.0000000 )

      isym =  2     180 deg rotation - cart. axis [0,0,1]

[...]

 cryst.   s( 4) = (    -1          0          0      )
                  (    -1          0          1      )
                  (    -1          1          0      )

 cart.    s( 4) = (  1.0000000  0.0000000  0.0000000 )
                  (  0.0000000 -1.0000000  0.0000000 )
                  (  0.0000000  0.0000000 -1.0000000 )

[...]

 cryst.   s( 5) = (    -1          0          1      )    f =( -0.2500000 )
                  (     0         -1          1      )       ( -0.2500000 )
                  (     0          0          1      )       ( -0.2500000 )

 cart.    s( 5) = (  0.0000000  1.0000000  0.0000000 )    f =( -0.3535534 )
                  (  1.0000000  0.0000000  0.0000000 )       ( -0.3535534 )
                  (  0.0000000  0.0000000 -1.0000000 )       ( -0.3535534 )

[...]

 cryst.   s( 9) = (    -1          1          0      )    f =( -0.2500000 )
                  (     0          1          0      )       ( -0.2500000 )
                  (     0          1         -1      )       ( -0.2500000 )

 cart.    s( 9) = (  0.0000000  0.0000000  1.0000000 )    f =( -0.3535534 )
                  (  0.0000000 -1.0000000  0.0000000 )       ( -0.3535534 )
                  (  1.0000000  0.0000000  0.0000000 )       ( -0.3535534 )

[...]

 cryst.   s(10) = (     0          0         -1      )    f =( -0.2500000 )
                  (     0         -1          0      )       ( -0.2500000 )
                  (    -1          0          0      )       ( -0.2500000 )

 cart.    s(10) = (  0.0000000  0.0000000 -1.0000000 )    f =( -0.3535534 )
                  (  0.0000000 -1.0000000  0.0000000 )       ( -0.3535534 )
                  ( -1.0000000  0.0000000  0.0000000 )       ( -0.3535534 )

[...]

 cryst.   s(17) = (     0          0          1      )
                  (     1          0          0      )
                  (     0          1          0      )

 cart.    s(17) = (  0.0000000  1.0000000  0.0000000 )
                  (  0.0000000  0.0000000  1.0000000 )
                  (  1.0000000  0.0000000  0.0000000 )

[...]

      isym = 24     120 deg rotation - cart. axis [-1,-1,1]

[...]

      isym = 25     inversion

[...]

      isym = 26     inv. 180 deg rotation - cart. axis [0,0,1]

[...]

 cryst.   s(40) = (     0         -1          1      )
                  (     1         -1          0      )
                  (     0         -1          0      )

 cart.    s(40) = ( -1.0000000  0.0000000  0.0000000 )
                  (  0.0000000  0.0000000  1.0000000 )
                  (  0.0000000 -1.0000000  0.0000000 )

[...]

      isym = 48     inv. 120 deg rotation - cart. axis [-1,-1,1]

 cryst.   s(48) = (     0          1          0      )    f =( -0.2500000 )
                  (    -1          1          0      )       ( -0.2500000 )
                  (     0          1         -1      )       ( -0.2500000 )

 cart.    s(48) = (  0.0000000  0.0000000  1.0000000 )    f =( -0.3535534 )
                  ( -1.0000000  0.0000000  0.0000000 )       ( -0.3535534 )
                  (  0.0000000  1.0000000  0.0000000 )       ( -0.3535534 )

   Cartesian axes

     site n.     atom                  positions (alat units)
         1           Sn  tau(   1) = (   0.0000000   0.0000000   0.0000000  )
         2           Sn  tau(   2) = (   0.3535534   0.3535534   0.3535534  )

   Crystallographic axes

     site n.     atom                  positions (cryst. coord.)
         1           Sn  tau(   1) = (  0.0000000  0.0000000  0.0000000  )
         2           Sn  tau(   2) = (  0.2500000  0.2500000  0.2500000  )

     number of k points=  3107  gaussian smearing, width (Ry)=  0.0001
                       cart. coord. in units 2pi/alat
        k(    1) = (   0.0000000   0.0000000   0.0000000), wk =   0.0000080
        k(    2) = (   0.0141421   0.0141421  -0.0141421), wk =   0.0000640
        k(    3) = (   0.0282843   0.0282843  -0.0282843), wk =   0.0000640
        k(    4) = (   0.0424264   0.0424264  -0.0424264), wk =   0.0000640
        k(    5) = (   0.0565685   0.0565685  -0.0565685), wk =   0.0000640
        k(    6) = (   0.0707107   0.0707107  -0.0707107), wk =   0.0000640
        k(    7) = (   0.0848528   0.0848528  -0.0848528), wk =   0.0000640
        k(    8) = (   0.0989949   0.0989949  -0.0989949), wk =   0.0000640
        k(    9) = (   0.1131371   0.1131371  -0.1131371), wk =   0.0000640
        k(   10) = (   0.1272792   0.1272792  -0.1272792), wk =   0.0000640
        k(   11) = (   0.1414214   0.1414214  -0.1414214), wk =   0.0000640
        k(   12) = (   0.1555635   0.1555635  -0.1555635), wk =   0.0000640
        k(   13) = (   0.1697056   0.1697056  -0.1697056), wk =   0.0000640
        k(   14) = (   0.1838478   0.1838478  -0.1838478), wk =   0.0000640
        k(   15) = (   0.1979899   0.1979899  -0.1979899), wk =   0.0000640
        k(   16) = (   0.2121320   0.2121320  -0.2121320), wk =   0.0000640
        k(   17) = (   0.2262742   0.2262742  -0.2262742), wk =   0.0000640
        k(   18) = (   0.2404163   0.2404163  -0.2404163), wk =   0.0000640
        k(   19) = (   0.2545584   0.2545584  -0.2545584), wk =   0.0000640
        k(   20) = (   0.2687006   0.2687006  -0.2687006), wk =   0.0000640
        k(   21) = (   0.2828427   0.2828427  -0.2828427), wk =   0.0000640
        k(   22) = (   0.2969848   0.2969848  -0.2969848), wk =   0.0000640
        k(   23) = (   0.3111270   0.3111270  -0.3111270), wk =   0.0000640
        k(   24) = (   0.3252691   0.3252691  -0.3252691), wk =   0.0000640
        k(   25) = (   0.3394113   0.3394113  -0.3394113), wk =   0.0000640
        k(   26) = (  -0.3535534  -0.3535534   0.3535534), wk =   0.0000320
        k(   27) = (   0.0282843   0.0000000   0.0000000), wk =   0.0000480
        k(   28) = (   0.0424264   0.0141421  -0.0141421), wk =   0.0001920
        k(   29) = (   0.0565685   0.0282843  -0.0282843), wk =   0.0001920
        k(   30) = (   0.0707107   0.0424264  -0.0424264), wk =   0.0001920
        k(   31) = (   0.0848528   0.0565685  -0.0565685), wk =   0.0001920
        k(   32) = (   0.0989949   0.0707107  -0.0707107), wk =   0.0001920
        k(   33) = (   0.1131371   0.0848528  -0.0848528), wk =   0.0001920
        k(   34) = (   0.1272792   0.0989949  -0.0989949), wk =   0.0001920
        k(   35) = (   0.1414214   0.1131371  -0.1131371), wk =   0.0001920
        k(   36) = (   0.1555635   0.1272792  -0.1272792), wk =   0.0001920
        k(   37) = (   0.1697056   0.1414214  -0.1414214), wk =   0.0001920
        k(   38) = (   0.1838478   0.1555635  -0.1555635), wk =   0.0001920
        k(   39) = (   0.1979899   0.1697056  -0.1697056), wk =   0.0001920
        k(   40) = (   0.2121320   0.1838478  -0.1838478), wk =   0.0001920
        k(   41) = (   0.2262742   0.1979899  -0.1979899), wk =   0.0001920
        k(   42) = (   0.2404163   0.2121320  -0.2121320), wk =   0.0001920
        k(   43) = (   0.2545584   0.2262742  -0.2262742), wk =   0.0001920
        k(   44) = (   0.2687006   0.2404163  -0.2404163), wk =   0.0001920
        k(   45) = (   0.2828427   0.2545584  -0.2545584), wk =   0.0001920
        k(   46) = (   0.2969848   0.2687006  -0.2687006), wk =   0.0001920
        k(   47) = (   0.3111270   0.2828427  -0.2828427), wk =   0.0001920
        k(   48) = (   0.3252691   0.2969848  -0.2969848), wk =   0.0001920
        k(   49) = (   0.3394113   0.3111270  -0.3111270), wk =   0.0001920
        k(   50) = (   0.3535534   0.3252691  -0.3252691), wk =   0.0001920
        k(   51) = (  -0.3394113  -0.3676955   0.3676955), wk =   0.0001920
        k(   52) = (  -0.3252691  -0.3535534   0.3535534), wk =   0.0001920
        k(   53) = (  -0.3111270  -0.3394113   0.3394113), wk =   0.0001920
        k(   54) = (  -0.2969848  -0.3252691   0.3252691), wk =   0.0001920
        k(   55) = (  -0.2828427  -0.3111270   0.3111270), wk =   0.0001920
        k(   56) = (  -0.2687006  -0.2969848   0.2969848), wk =   0.0001920
        k(   57) = (  -0.2545584  -0.2828427   0.2828427), wk =   0.0001920
        k(   58) = (  -0.2404163  -0.2687006   0.2687006), wk =   0.0001920
        k(   59) = (  -0.2262742  -0.2545584   0.2545584), wk =   0.0001920
        k(   60) = (  -0.2121320  -0.2404163   0.2404163), wk =   0.0001920
[...]
        k( 3093) = (  -0.0707107  -0.3818377   0.6929646), wk =   0.0003840
        k( 3094) = (  -0.0565685  -0.3676955   0.6788225), wk =   0.0003840
        k( 3095) = (  -0.0424264  -0.3535534   0.6646804), wk =   0.0001920
        k( 3096) = (  -0.0565685  -0.3959798   0.7071068), wk =   0.0001920
        k( 3097) = (  -0.0424264  -0.3818377   0.6929646), wk =   0.0003840
        k( 3098) = (  -0.0282843  -0.3676955   0.6788225), wk =   0.0003840
        k( 3099) = (  -0.0141421  -0.3535534   0.6646804), wk =   0.0003840
        k( 3100) = (   0.0000000  -0.3394113   0.6505382), wk =   0.0001920
        k( 3101) = (  -0.0282843  -0.3959798   0.7071068), wk =   0.0001920
        k( 3102) = (  -0.0141421  -0.3818377   0.6929646), wk =   0.0003840
        k( 3103) = (   0.0000000  -0.3676955   0.6788225), wk =   0.0001920
        k( 3104) = (  -0.7071068   0.3111270   0.0000000), wk =   0.0000960
        k( 3105) = (  -0.0282843  -0.3676955   0.7071068), wk =   0.0001920
        k( 3106) = (  -0.0141421  -0.3535534   0.6929646), wk =   0.0001920
        k( 3107) = (  -0.7071068   0.3394113   0.0000000), wk =   0.0000960

                       cryst. coord.
        k(    1) = (   0.0000000   0.0000000   0.0000000), wk =   0.0000080
        k(    2) = (   0.0000000   0.0000000   0.0200000), wk =   0.0000640
        k(    3) = (   0.0000000   0.0000000   0.0400000), wk =   0.0000640
        k(    4) = (   0.0000000   0.0000000   0.0600000), wk =   0.0000640
        k(    5) = (   0.0000000   0.0000000   0.0800000), wk =   0.0000640
        k(    6) = (   0.0000000   0.0000000   0.1000000), wk =   0.0000640
        k(    7) = (   0.0000000   0.0000000   0.1200000), wk =   0.0000640
        k(    8) = (   0.0000000   0.0000000   0.1400000), wk =   0.0000640
        k(    9) = (   0.0000000   0.0000000   0.1600000), wk =   0.0000640
        k(   10) = (   0.0000000   0.0000000   0.1800000), wk =   0.0000640
        k(   11) = (   0.0000000   0.0000000   0.2000000), wk =   0.0000640
        k(   12) = (   0.0000000   0.0000000   0.2200000), wk =   0.0000640
        k(   13) = (   0.0000000   0.0000000   0.2400000), wk =   0.0000640
        k(   14) = (   0.0000000   0.0000000   0.2600000), wk =   0.0000640
        k(   15) = (   0.0000000   0.0000000   0.2800000), wk =   0.0000640
        k(   16) = (   0.0000000   0.0000000   0.3000000), wk =   0.0000640
        k(   17) = (   0.0000000   0.0000000   0.3200000), wk =   0.0000640
        k(   18) = (   0.0000000   0.0000000   0.3400000), wk =   0.0000640
        k(   19) = (   0.0000000   0.0000000   0.3600000), wk =   0.0000640
        k(   20) = (   0.0000000   0.0000000   0.3800000), wk =   0.0000640
        k(   21) = (   0.0000000   0.0000000   0.4000000), wk =   0.0000640
        k(   22) = (   0.0000000   0.0000000   0.4200000), wk =   0.0000640
        k(   23) = (   0.0000000   0.0000000   0.4400000), wk =   0.0000640
        k(   24) = (   0.0000000   0.0000000   0.4600000), wk =   0.0000640
        k(   25) = (   0.0000000   0.0000000   0.4800000), wk =   0.0000640
        k(   26) = (   0.0000000   0.0000000  -0.5000000), wk =   0.0000320
        k(   27) = (   0.0000000   0.0200000   0.0200000), wk =   0.0000480
        k(   28) = (   0.0000000   0.0200000   0.0400000), wk =   0.0001920
        k(   29) = (   0.0000000   0.0200000   0.0600000), wk =   0.0001920
        k(   30) = (   0.0000000   0.0200000   0.0800000), wk =   0.0001920
        k(   31) = (   0.0000000   0.0200000   0.1000000), wk =   0.0001920
        k(   32) = (   0.0000000   0.0200000   0.1200000), wk =   0.0001920
        k(   33) = (   0.0000000   0.0200000   0.1400000), wk =   0.0001920
        k(   34) = (   0.0000000   0.0200000   0.1600000), wk =   0.0001920
        k(   35) = (   0.0000000   0.0200000   0.1800000), wk =   0.0001920
        k(   36) = (   0.0000000   0.0200000   0.2000000), wk =   0.0001920
        k(   37) = (   0.0000000   0.0200000   0.2200000), wk =   0.0001920
        k(   38) = (   0.0000000   0.0200000   0.2400000), wk =   0.0001920
        k(   39) = (   0.0000000   0.0200000   0.2600000), wk =   0.0001920
        k(   40) = (   0.0000000   0.0200000   0.2800000), wk =   0.0001920
        k(   41) = (   0.0000000   0.0200000   0.3000000), wk =   0.0001920
        k(   42) = (   0.0000000   0.0200000   0.3200000), wk =   0.0001920
        k(   43) = (   0.0000000   0.0200000   0.3400000), wk =   0.0001920
        k(   44) = (   0.0000000   0.0200000   0.3600000), wk =   0.0001920
        k(   45) = (   0.0000000   0.0200000   0.3800000), wk =   0.0001920
        k(   46) = (   0.0000000   0.0200000   0.4000000), wk =   0.0001920
        k(   47) = (   0.0000000   0.0200000   0.4200000), wk =   0.0001920
        k(   48) = (   0.0000000   0.0200000   0.4400000), wk =   0.0001920
        k(   49) = (   0.0000000   0.0200000   0.4600000), wk =   0.0001920
        k(   50) = (   0.0000000   0.0200000   0.4800000), wk =   0.0001920
        k(   51) = (   0.0000000   0.0200000  -0.5000000), wk =   0.0001920
        k(   52) = (   0.0000000   0.0200000  -0.4800000), wk =   0.0001920
        k(   53) = (   0.0000000   0.0200000  -0.4600000), wk =   0.0001920
        k(   54) = (   0.0000000   0.0200000  -0.4400000), wk =   0.0001920
        k(   55) = (   0.0000000   0.0200000  -0.4200000), wk =   0.0001920
        k(   56) = (   0.0000000   0.0200000  -0.4000000), wk =   0.0001920
        k(   57) = (   0.0000000   0.0200000  -0.3800000), wk =   0.0001920
        k(   58) = (   0.0000000   0.0200000  -0.3600000), wk =   0.0001920
        k(   59) = (   0.0000000   0.0200000  -0.3400000), wk =   0.0001920
        k(   60) = (   0.0000000   0.0200000  -0.3200000), wk =   0.0001920
[...]
        k( 3093) = (   0.2200000   0.4400000  -0.3200000), wk =   0.0003840
        k( 3094) = (   0.2200000   0.4400000  -0.3000000), wk =   0.0003840
        k( 3095) = (   0.2200000   0.4400000  -0.2800000), wk =   0.0001920
        k( 3096) = (   0.2200000   0.4600000  -0.3200000), wk =   0.0001920
        k( 3097) = (   0.2200000   0.4600000  -0.3000000), wk =   0.0003840
        k( 3098) = (   0.2200000   0.4600000  -0.2800000), wk =   0.0003840
        k( 3099) = (   0.2200000   0.4600000  -0.2600000), wk =   0.0003840
        k( 3100) = (   0.2200000   0.4600000  -0.2400000), wk =   0.0001920
        k( 3101) = (   0.2200000   0.4800000  -0.3000000), wk =   0.0001920
        k( 3102) = (   0.2200000   0.4800000  -0.2800000), wk =   0.0003840
        k( 3103) = (   0.2200000   0.4800000  -0.2600000), wk =   0.0001920
        k( 3104) = (   0.2200000  -0.5000000  -0.2800000), wk =   0.0000960
        k( 3105) = (   0.2400000   0.4800000  -0.2800000), wk =   0.0001920
        k( 3106) = (   0.2400000   0.4800000  -0.2600000), wk =   0.0001920
        k( 3107) = (   0.2400000  -0.5000000  -0.2600000), wk =   0.0000960

     Largest allocated arrays     est. size (Mb)     dimensions
     Largest temporary arrays     est. size (Mb)     dimensions

     Check: negative/imaginary core charge=   -0.000003    0.000000

     Initial potential from superposition of free atoms

     starting charge   27.99781, renormalised to   28.00000
     Starting wfc are   36 randomized atomic wfcs
     Checking if some PAW data can be deallocated...

     Self-consistent Calculation

     iteration #  1     ecut=    40.00 Ry     beta=0.70
     Davidson diagonalization with overlap
     ethr =  1.00E-02,  avg # of iterations =  3.5

     Threshold (ethr) on eigenvalues was too large:
     Diagonalizing with lowered threshold

     Davidson diagonalization with overlap
     ethr =  6.13E-05,  avg # of iterations =  3.5

     total energy              =    -885.82663693 Ry
     Harris-Foulkes estimate   =    -885.82849088 Ry
     estimated scf accuracy    <       0.02068950 Ry

[...]

     total energy              =    -885.82838771 Ry
     Harris-Foulkes estimate   =    -885.82838593 Ry
     estimated scf accuracy    <       0.00000479 Ry

     iteration #  5     ecut=    40.00 Ry     beta=0.70
     Davidson diagonalization with overlap
     ethr =  1.71E-08,  avg # of iterations =  2.0

     End of self-consistent calculation

          k = 0.0000 0.0000 0.0000 (  2085 PWs)   bands (ev):

   -14.5614 -14.5614 -14.5614 -14.5614 -14.4665 -14.4665 -14.4665 -14.4665
   -13.6496 -13.6496 -13.4486 -13.4486 -13.4486 -13.4486 -13.4040 -13.4040
   -13.4040 -13.4040 -13.2887 -13.2887  -2.8485  -2.8485   6.7548   6.7548
     7.1949   7.1949   7.8628   7.8628   7.8628   7.8628   9.4036   9.4036
     9.8758   9.8758   9.8758   9.8758

     occupation numbers
     1.0000   1.0000   1.0000   1.0000   1.0000   1.0000   1.0000   1.0000
     1.0000   1.0000   1.0000   1.0000   1.0000   1.0000   1.0000   1.0000
     1.0000   1.0000   1.0000   1.0000   1.0000   1.0000   1.0000   1.0000
     1.0000   1.0000   0.0000   0.0000   0.0000   0.0000   0.0000   0.0000
     0.0000   0.0000   0.0000   0.0000

[...]

          k =-0.3536-0.3536 0.3536 (  2036 PWs)   bands (ev):

[...]

          k = 0.0000-0.3677 0.6788 (  2012 PWs)   bands (ev):

[...]

          k =-0.7071 0.3394 0.0000 (  2016 PWs)   bands (ev):

   -14.5535 -14.5535 -14.5231 -14.5231 -14.4840 -14.4840 -14.4386 -14.4386
   -13.5625 -13.5625 -13.5106 -13.5106 -13.4533 -13.4533 -13.4367 -13.4367
   -13.3253 -13.3253 -13.2718 -13.2718   0.1789   0.1789   0.2287   0.2287
     4.5428   4.5428   4.7187   4.7187  10.7098  10.7098  11.0091  11.0091
    11.6723  11.6723  11.6746  11.6746

     occupation numbers
     1.0000   1.0000   1.0000   1.0000   1.0000   1.0000   1.0000   1.0000
     1.0000   1.0000   1.0000   1.0000   1.0000   1.0000   1.0000   1.0000
     1.0000   1.0000   1.0000   1.0000   1.0000   1.0000   1.0000   1.0000
     1.0000   1.0000   1.0000   1.0000   0.0000   0.0000   0.0000   0.0000
     0.0000   0.0000   0.0000   0.0000

     the Fermi energy is     7.6528 ev

!    total energy              =    -885.82838849 Ry
     Harris-Foulkes estimate   =    -885.82838838 Ry
     estimated scf accuracy    <       0.00000010 Ry

     total all-electron energy =    -24716.528138 Ry

     The total energy is the sum of the following terms:

     one-electron contribution =    -148.92349633 Ry
     hartree contribution      =      93.71248821 Ry
     xc contribution           =     -96.16585346 Ry
     ewald contribution        =    -170.59904351 Ry
     one-center paw contrib.   =    -563.85248339 Ry
     smearing contrib. (-TS)   =      -0.00000001 Ry

     convergence has been achieved in   5 iterations

     Writing output data file Sn.save

     General routines

     Parallel routines

     PAW routines

   This run was terminated on:  21:45:30   8Mar2020

   JOB DONE.