     Program PWSCF v.5.4.0 starts on  1Mar2020 at 12:48:58

     Current dimensions of program PWSCF are:
     Max number of different atomic species (ntypx) = 10
     Max number of k-points (npk) =  40000
     Max angular momentum in pseudopotentials (lmaxx) =  3

     Subspace diagonalization in iterative solution of the eigenvalue problem:
     a serial algorithm will be used

     Title:
     Sn

     bravais-lattice index     =            0
     lattice parameter (alat)  =       8.8192  a.u.
     unit-cell volume          =     485.0298 (a.u.)^3
     number of atoms/cell      =            2
     number of atomic types    =            1
     number of electrons       =        28.00
     number of Kohn-Sham states=           18
     kinetic-energy cutoff     =     100.0000  Ry
     charge density cutoff     =     400.0000  Ry
     convergence threshold     =      1.0E-06
     mixing beta               =       0.7000
     number of iterations used =            8  plain     mixing
     Exchange-correlation      = PBE ( 1  4  3  4 0 0)

     celldm(1)=   8.819172  celldm(2)=   0.000000  celldm(3)=   0.000000
     celldm(4)=   0.000000  celldm(5)=   0.000000  celldm(6)=   0.000000

     crystal axes: (cart. coord. in units of alat)
               a(1) = (   0.000000   0.707107   0.707107 )
               a(2) = (   0.707107   0.000000   0.707107 )
               a(3) = (   0.707107   0.707107   0.000000 )

     reciprocal axes: (cart. coord. in units 2 pi/alat)
               b(1) = ( -0.707107  0.707107  0.707107 )
               b(2) = (  0.707107 -0.707107  0.707107 )
               b(3) = (  0.707107  0.707107 -0.707107 )

     PseudoPot. # 1 for Sn read from file:
     ../PseudopotentialDatabase/Sn_ONCV_PBE_FR-1.1.upf
     MD5 check sum: 6dd2180f739ea5ae1610ead5e1628a0e
     Pseudo is Norm-conserving, Zval = 14.0
     Generated using ONCVPSP code by D. R. Hamann
     Using radial grid of  602 points,  6 beta functions with:
                l(1) =   0
                l(2) =   0
                l(3) =   1
                l(4) =   1
                l(5) =   2
                l(6) =   2

     atomic species   valence    mass     pseudopotential
        Sn            14.00   118.71000     Sn( 1.00)

     48 Sym. Ops., with inversion, found (24 have fractional translation)

                                    s                        frac. trans.

      isym =  1     identity

 cryst.   s( 1) = (     1          0          0      )
                  (     0          1          0      )
                  (     0          0          1      )

 cart.    s( 1) = (  1.0000000  0.0000000  0.0000000 )
                  (  0.0000000  1.0000000  0.0000000 )
                  (  0.0000000  0.0000000  1.0000000 )

      isym =  2     180 deg rotation - cart. axis [0,0,1]

[...]

 cryst.   s( 4) = (    -1          0          0      )
                  (    -1          0          1      )
                  (    -1          1          0      )

 cart.    s( 4) = (  1.0000000  0.0000000  0.0000000 )
                  (  0.0000000 -1.0000000  0.0000000 )
                  (  0.0000000  0.0000000 -1.0000000 )

[...]

 cryst.   s( 5) = (    -1          0          1      )    f =( -0.2500000 )
                  (     0         -1          1      )       ( -0.2500000 )
                  (     0          0          1      )       ( -0.2500000 )

 cart.    s( 5) = (  0.0000000  1.0000000  0.0000000 )    f =( -0.3535534 )
                  (  1.0000000  0.0000000  0.0000000 )       ( -0.3535534 )
                  (  0.0000000  0.0000000 -1.0000000 )       ( -0.3535534 )

[...]

 cryst.   s( 9) = (    -1          1          0      )    f =( -0.2500000 )
                  (     0          1          0      )       ( -0.2500000 )
                  (     0          1         -1      )       ( -0.2500000 )

 cart.    s( 9) = (  0.0000000  0.0000000  1.0000000 )    f =( -0.3535534 )
                  (  0.0000000 -1.0000000  0.0000000 )       ( -0.3535534 )
                  (  1.0000000  0.0000000  0.0000000 )       ( -0.3535534 )

[...]

 cryst.   s(10) = (     0          0         -1      )    f =( -0.2500000 )
                  (     0         -1          0      )       ( -0.2500000 )
                  (    -1          0          0      )       ( -0.2500000 )

 cart.    s(10) = (  0.0000000  0.0000000 -1.0000000 )    f =( -0.3535534 )
                  (  0.0000000 -1.0000000  0.0000000 )       ( -0.3535534 )
                  ( -1.0000000  0.0000000  0.0000000 )       ( -0.3535534 )

[...]

 cryst.   s(17) = (     0          0          1      )
                  (     1          0          0      )
                  (     0          1          0      )

 cart.    s(17) = (  0.0000000  1.0000000  0.0000000 )
                  (  0.0000000  0.0000000  1.0000000 )
                  (  1.0000000  0.0000000  0.0000000 )

[...]

      isym = 24     120 deg rotation - cart. axis [-1,-1,1]

[...]

      isym = 25     inversion

[...]

      isym = 26     inv. 180 deg rotation - cart. axis [0,0,1]

[...]

 cryst.   s(40) = (     0         -1          1      )
                  (     1         -1          0      )
                  (     0         -1          0      )

 cart.    s(40) = ( -1.0000000  0.0000000  0.0000000 )
                  (  0.0000000  0.0000000  1.0000000 )
                  (  0.0000000 -1.0000000  0.0000000 )

[...]

      isym = 48     inv. 120 deg rotation - cart. axis [-1,-1,1]

 cryst.   s(48) = (     0          1          0      )    f =( -0.2500000 )
                  (    -1          1          0      )       ( -0.2500000 )
                  (     0          1         -1      )       ( -0.2500000 )

 cart.    s(48) = (  0.0000000  0.0000000  1.0000000 )    f =( -0.3535534 )
                  ( -1.0000000  0.0000000  0.0000000 )       ( -0.3535534 )
                  (  0.0000000  1.0000000  0.0000000 )       ( -0.3535534 )

   Cartesian axes

     site n.     atom                  positions (alat units)
         1           Sn  tau(   1) = (   0.0000000   0.0000000   0.0000000  )
         2           Sn  tau(   2) = (   0.3535534   0.3535534   0.3535534  )

   Crystallographic axes

     site n.     atom                  positions (cryst. coord.)
         1           Sn  tau(   1) = (  0.0000000  0.0000000  0.0000000  )
         2           Sn  tau(   2) = (  0.2500000  0.2500000  0.2500000  )

     number of k points=   752  gaussian smearing, width (Ry)=  0.0001
                       cart. coord. in units 2pi/alat
        k(    1) = (   0.0000000   0.0000000   0.0000000), wk =   0.0000741
        k(    2) = (   0.0235702   0.0235702  -0.0235702), wk =   0.0005926
        k(    3) = (   0.0471405   0.0471405  -0.0471405), wk =   0.0005926
        k(    4) = (   0.0707107   0.0707107  -0.0707107), wk =   0.0005926
        k(    5) = (   0.0942809   0.0942809  -0.0942809), wk =   0.0005926
        k(    6) = (   0.1178511   0.1178511  -0.1178511), wk =   0.0005926
        k(    7) = (   0.1414214   0.1414214  -0.1414214), wk =   0.0005926
        k(    8) = (   0.1649916   0.1649916  -0.1649916), wk =   0.0005926
        k(    9) = (   0.1885618   0.1885618  -0.1885618), wk =   0.0005926
        k(   10) = (   0.2121320   0.2121320  -0.2121320), wk =   0.0005926
        k(   11) = (   0.2357023   0.2357023  -0.2357023), wk =   0.0005926
        k(   12) = (   0.2592725   0.2592725  -0.2592725), wk =   0.0005926
        k(   13) = (   0.2828427   0.2828427  -0.2828427), wk =   0.0005926
        k(   14) = (   0.3064129   0.3064129  -0.3064129), wk =   0.0005926
        k(   15) = (   0.3299832   0.3299832  -0.3299832), wk =   0.0005926
        k(   16) = (  -0.3535534  -0.3535534   0.3535534), wk =   0.0002963
        k(   17) = (   0.0471405   0.0000000   0.0000000), wk =   0.0004444
        k(   18) = (   0.0707107   0.0235702  -0.0235702), wk =   0.0017778
        k(   19) = (   0.0942809   0.0471405  -0.0471405), wk =   0.0017778
        k(   20) = (   0.1178511   0.0707107  -0.0707107), wk =   0.0017778
        k(   21) = (   0.1414214   0.0942809  -0.0942809), wk =   0.0017778
        k(   22) = (   0.1649916   0.1178511  -0.1178511), wk =   0.0017778
        k(   23) = (   0.1885618   0.1414214  -0.1414214), wk =   0.0017778
        k(   24) = (   0.2121320   0.1649916  -0.1649916), wk =   0.0017778
        k(   25) = (   0.2357023   0.1885618  -0.1885618), wk =   0.0017778
        k(   26) = (   0.2592725   0.2121320  -0.2121320), wk =   0.0017778
        k(   27) = (   0.2828427   0.2357023  -0.2357023), wk =   0.0017778
        k(   28) = (   0.3064129   0.2592725  -0.2592725), wk =   0.0017778
        k(   29) = (   0.3299832   0.2828427  -0.2828427), wk =   0.0017778
        k(   30) = (   0.3535534   0.3064129  -0.3064129), wk =   0.0017778
        k(   31) = (  -0.3299832  -0.3771236   0.3771236), wk =   0.0017778
        k(   32) = (  -0.3064129  -0.3535534   0.3535534), wk =   0.0017778
        k(   33) = (  -0.2828427  -0.3299832   0.3299832), wk =   0.0017778
        k(   34) = (  -0.2592725  -0.3064129   0.3064129), wk =   0.0017778
        k(   35) = (  -0.2357023  -0.2828427   0.2828427), wk =   0.0017778
        k(   36) = (  -0.2121320  -0.2592725   0.2592725), wk =   0.0017778
        k(   37) = (  -0.1885618  -0.2357023   0.2357023), wk =   0.0017778
        k(   38) = (  -0.1649916  -0.2121320   0.2121320), wk =   0.0017778
        k(   39) = (  -0.1414214  -0.1885618   0.1885618), wk =   0.0017778
        k(   40) = (  -0.1178511  -0.1649916   0.1649916), wk =   0.0017778
        k(   41) = (  -0.0942809  -0.1414214   0.1414214), wk =   0.0017778
        k(   42) = (  -0.0707107  -0.1178511   0.1178511), wk =   0.0017778
        k(   43) = (  -0.0471405  -0.0942809   0.0942809), wk =   0.0017778
        k(   44) = (  -0.0235702  -0.0707107   0.0707107), wk =   0.0017778
        k(   45) = (   0.0000000  -0.0471405   0.0471405), wk =   0.0008889
        k(   46) = (   0.0942809   0.0000000   0.0000000), wk =   0.0004444
        k(   47) = (   0.1178511   0.0235702  -0.0235702), wk =   0.0017778
        k(   48) = (   0.1414214   0.0471405  -0.0471405), wk =   0.0017778
        k(   49) = (   0.1649916   0.0707107  -0.0707107), wk =   0.0017778
        k(   50) = (   0.1885618   0.0942809  -0.0942809), wk =   0.0017778
        k(   51) = (   0.2121320   0.1178511  -0.1178511), wk =   0.0017778
        k(   52) = (   0.2357023   0.1414214  -0.1414214), wk =   0.0017778
        k(   53) = (   0.2592725   0.1649916  -0.1649916), wk =   0.0017778
        k(   54) = (   0.2828427   0.1885618  -0.1885618), wk =   0.0017778
        k(   55) = (   0.3064129   0.2121320  -0.2121320), wk =   0.0017778
        k(   56) = (   0.3299832   0.2357023  -0.2357023), wk =   0.0017778
        k(   57) = (   0.3535534   0.2592725  -0.2592725), wk =   0.0017778
        k(   58) = (   0.3771236   0.2828427  -0.2828427), wk =   0.0017778
        k(   59) = (  -0.3064129  -0.4006938   0.4006938), wk =   0.0017778
        k(   60) = (  -0.2828427  -0.3771236   0.3771236), wk =   0.0017778
[...]
        k(  738) = (  -0.1178511  -0.4006938   0.6835366), wk =   0.0035556
        k(  739) = (  -0.0942809  -0.3771236   0.6599663), wk =   0.0035556
        k(  740) = (  -0.0707107  -0.3535534   0.6363961), wk =   0.0017778
        k(  741) = (  -0.0942809  -0.4242641   0.7071068), wk =   0.0017778
        k(  742) = (  -0.0707107  -0.4006938   0.6835366), wk =   0.0035556
        k(  743) = (  -0.0471405  -0.3771236   0.6599663), wk =   0.0035556
        k(  744) = (  -0.0235702  -0.3535534   0.6363961), wk =   0.0035556
        k(  745) = (   0.0000000  -0.3299832   0.6128259), wk =   0.0017778
        k(  746) = (  -0.0471405  -0.4242641   0.7071068), wk =   0.0017778
        k(  747) = (  -0.0235702  -0.4006938   0.6835366), wk =   0.0035556
        k(  748) = (  -0.0000000  -0.3771236   0.6599663), wk =   0.0017778
        k(  749) = (  -0.7071068   0.2828427   0.0000000), wk =   0.0008889
        k(  750) = (  -0.0471405  -0.3771236   0.7071068), wk =   0.0017778
        k(  751) = (  -0.0235702  -0.3535534   0.6835366), wk =   0.0017778
        k(  752) = (  -0.7071068   0.3299832   0.0000000), wk =   0.0008889

                       cryst. coord.
        k(    1) = (   0.0000000   0.0000000   0.0000000), wk =   0.0000741
        k(    2) = (   0.0000000   0.0000000   0.0333333), wk =   0.0005926
        k(    3) = (   0.0000000   0.0000000   0.0666667), wk =   0.0005926
        k(    4) = (   0.0000000   0.0000000   0.1000000), wk =   0.0005926
        k(    5) = (   0.0000000   0.0000000   0.1333333), wk =   0.0005926
        k(    6) = (   0.0000000   0.0000000   0.1666667), wk =   0.0005926
        k(    7) = (   0.0000000   0.0000000   0.2000000), wk =   0.0005926
        k(    8) = (   0.0000000   0.0000000   0.2333333), wk =   0.0005926
        k(    9) = (   0.0000000   0.0000000   0.2666667), wk =   0.0005926
        k(   10) = (   0.0000000   0.0000000   0.3000000), wk =   0.0005926
        k(   11) = (   0.0000000   0.0000000   0.3333333), wk =   0.0005926
        k(   12) = (   0.0000000   0.0000000   0.3666667), wk =   0.0005926
        k(   13) = (   0.0000000   0.0000000   0.4000000), wk =   0.0005926
        k(   14) = (   0.0000000   0.0000000   0.4333333), wk =   0.0005926
        k(   15) = (   0.0000000   0.0000000   0.4666667), wk =   0.0005926
        k(   16) = (   0.0000000   0.0000000  -0.5000000), wk =   0.0002963
        k(   17) = (   0.0000000   0.0333333   0.0333333), wk =   0.0004444
        k(   18) = (   0.0000000   0.0333333   0.0666667), wk =   0.0017778
        k(   19) = (   0.0000000   0.0333333   0.1000000), wk =   0.0017778
        k(   20) = (   0.0000000   0.0333333   0.1333333), wk =   0.0017778
        k(   21) = (   0.0000000   0.0333333   0.1666667), wk =   0.0017778
        k(   22) = (   0.0000000   0.0333333   0.2000000), wk =   0.0017778
        k(   23) = (   0.0000000   0.0333333   0.2333333), wk =   0.0017778
        k(   24) = (   0.0000000   0.0333333   0.2666667), wk =   0.0017778
        k(   25) = (   0.0000000   0.0333333   0.3000000), wk =   0.0017778
        k(   26) = (   0.0000000   0.0333333   0.3333333), wk =   0.0017778
        k(   27) = (   0.0000000   0.0333333   0.3666667), wk =   0.0017778
        k(   28) = (   0.0000000   0.0333333   0.4000000), wk =   0.0017778
        k(   29) = (   0.0000000   0.0333333   0.4333333), wk =   0.0017778
        k(   30) = (   0.0000000   0.0333333   0.4666667), wk =   0.0017778
        k(   31) = (   0.0000000   0.0333333  -0.5000000), wk =   0.0017778
        k(   32) = (   0.0000000   0.0333333  -0.4666667), wk =   0.0017778
        k(   33) = (   0.0000000   0.0333333  -0.4333333), wk =   0.0017778
        k(   34) = (   0.0000000   0.0333333  -0.4000000), wk =   0.0017778
        k(   35) = (   0.0000000   0.0333333  -0.3666667), wk =   0.0017778
        k(   36) = (   0.0000000   0.0333333  -0.3333333), wk =   0.0017778
        k(   37) = (   0.0000000   0.0333333  -0.3000000), wk =   0.0017778
        k(   38) = (   0.0000000   0.0333333  -0.2666667), wk =   0.0017778
        k(   39) = (   0.0000000   0.0333333  -0.2333333), wk =   0.0017778
        k(   40) = (   0.0000000   0.0333333  -0.2000000), wk =   0.0017778
        k(   41) = (   0.0000000   0.0333333  -0.1666667), wk =   0.0017778
        k(   42) = (   0.0000000   0.0333333  -0.1333333), wk =   0.0017778
        k(   43) = (   0.0000000   0.0333333  -0.1000000), wk =   0.0017778
        k(   44) = (   0.0000000   0.0333333  -0.0666667), wk =   0.0017778
        k(   45) = (   0.0000000   0.0333333  -0.0333333), wk =   0.0008889
        k(   46) = (   0.0000000   0.0666667   0.0666667), wk =   0.0004444
        k(   47) = (   0.0000000   0.0666667   0.1000000), wk =   0.0017778
        k(   48) = (   0.0000000   0.0666667   0.1333333), wk =   0.0017778
        k(   49) = (   0.0000000   0.0666667   0.1666667), wk =   0.0017778
        k(   50) = (   0.0000000   0.0666667   0.2000000), wk =   0.0017778
        k(   51) = (   0.0000000   0.0666667   0.2333333), wk =   0.0017778
        k(   52) = (   0.0000000   0.0666667   0.2666667), wk =   0.0017778
        k(   53) = (   0.0000000   0.0666667   0.3000000), wk =   0.0017778
        k(   54) = (   0.0000000   0.0666667   0.3333333), wk =   0.0017778
        k(   55) = (   0.0000000   0.0666667   0.3666667), wk =   0.0017778
        k(   56) = (   0.0000000   0.0666667   0.4000000), wk =   0.0017778
        k(   57) = (   0.0000000   0.0666667   0.4333333), wk =   0.0017778
        k(   58) = (   0.0000000   0.0666667   0.4666667), wk =   0.0017778
        k(   59) = (   0.0000000   0.0666667  -0.5000000), wk =   0.0017778
        k(   60) = (   0.0000000   0.0666667  -0.4666667), wk =   0.0017778
[...]
        k(  738) = (   0.2000000   0.4000000  -0.3666667), wk =   0.0035556
        k(  739) = (   0.2000000   0.4000000  -0.3333333), wk =   0.0035556
        k(  740) = (   0.2000000   0.4000000  -0.3000000), wk =   0.0017778
        k(  741) = (   0.2000000   0.4333333  -0.3666667), wk =   0.0017778
        k(  742) = (   0.2000000   0.4333333  -0.3333333), wk =   0.0035556
        k(  743) = (   0.2000000   0.4333333  -0.3000000), wk =   0.0035556
        k(  744) = (   0.2000000   0.4333333  -0.2666667), wk =   0.0035556
        k(  745) = (   0.2000000   0.4333333  -0.2333333), wk =   0.0017778
        k(  746) = (   0.2000000   0.4666667  -0.3333333), wk =   0.0017778
        k(  747) = (   0.2000000   0.4666667  -0.3000000), wk =   0.0035556
        k(  748) = (   0.2000000   0.4666667  -0.2666667), wk =   0.0017778
        k(  749) = (   0.2000000  -0.5000000  -0.3000000), wk =   0.0008889
        k(  750) = (   0.2333333   0.4666667  -0.3000000), wk =   0.0017778
        k(  751) = (   0.2333333   0.4666667  -0.2666667), wk =   0.0017778
        k(  752) = (   0.2333333  -0.5000000  -0.2666667), wk =   0.0008889

     Largest allocated arrays     est. size (Mb)     dimensions
     Largest temporary arrays     est. size (Mb)     dimensions

     Initial potential from superposition of free atoms

     starting charge   27.82601, renormalised to   28.00000
     Starting wfc are random

     Self-consistent Calculation

     iteration #  1     ecut=   100.00 Ry     beta=0.70
     Davidson diagonalization with overlap
     ethr =  1.00E-02,  avg # of iterations =  7.0

     total energy              =    -233.14194668 Ry
     Harris-Foulkes estimate   =    -234.58015190 Ry
     estimated scf accuracy    <       2.29680756 Ry

[...]

     total energy              =    -233.44907449 Ry
     Harris-Foulkes estimate   =    -233.44907249 Ry
     estimated scf accuracy    <       0.00002816 Ry

     iteration #  5     ecut=   100.00 Ry     beta=0.70
     Davidson diagonalization with overlap
     ethr =  1.01E-07,  avg # of iterations =  2.5

     End of self-consistent calculation

          k = 0.0000 0.0000 0.0000 (  8099 PWs)   bands (ev):

   -12.0500 -12.0500 -12.0500 -11.9944 -11.9944 -11.7672 -11.7672 -11.7672
   -11.7537 -11.7537  -2.1932   5.7574   8.9910   8.9910   8.9910  11.2701
    11.2701  11.2701

     occupation numbers
     1.0000   1.0000   1.0000   1.0000   1.0000   1.0000   1.0000   1.0000
     1.0000   1.0000   1.0000   1.0000   0.0000   0.0000   0.0000   0.0000
     0.0000   0.0000

[...]

          k =-0.3536-0.3536 0.3536 (  8188 PWs)   bands (ev):

[...]

          k = 0.0000-0.3300 0.6128 (  8200 PWs)   bands (ev):

[...]

          k =-0.7071 0.3300 0.0000 (  8182 PWs)   bands (ev):

   -12.1016 -12.1016 -11.9406 -11.9406 -11.8801 -11.8801 -11.8489 -11.8489
   -11.6962 -11.6962   0.5991   0.5991   6.1574   6.1574  11.7168  11.7168
    13.4807  13.4807

     occupation numbers
     1.0000   1.0000   1.0000   1.0000   1.0000   1.0000   1.0000   1.0000
     1.0000   1.0000   1.0000   1.0000   1.0000   1.0000   0.0000   0.0000
     0.0000   0.0000

     the Fermi energy is     8.6654 ev

!    total energy              =    -233.44907878 Ry
     Harris-Foulkes estimate   =    -233.44907894 Ry
     estimated scf accuracy    <       0.00000041 Ry

     The total energy is the sum of the following terms:

     one-electron contribution =     -92.91968653 Ry
     hartree contribution      =      57.50930267 Ry
     xc contribution           =     -28.73206838 Ry
     ewald contribution        =    -169.30662650 Ry
     smearing contrib. (-TS)   =      -0.00000005 Ry

     convergence has been achieved in   5 iterations

     Writing output data file Sn.save

     General routines

     Parallel routines

   This run was terminated on:  12:53:48   1Mar2020

   JOB DONE.