     Program PWSCF v.5.4.0 starts on 27Feb2020 at 21:23:36

     Current dimensions of program PWSCF are:
     Max number of different atomic species (ntypx) = 10
     Max number of k-points (npk) =  40000
     Max angular momentum in pseudopotentials (lmaxx) =  3

     Subspace diagonalization in iterative solution of the eigenvalue problem:
     a serial algorithm will be used

     Title:
     Sn

     bravais-lattice index     =            0
     lattice parameter (alat)  =       8.8993  a.u.
     unit-cell volume          =     498.3785 (a.u.)^3
     number of atoms/cell      =            2
     number of atomic types    =            1
     number of electrons       =        28.00
     number of Kohn-Sham states=           18
     kinetic-energy cutoff     =     200.0000  Ry
     charge density cutoff     =     800.0000  Ry
     convergence threshold     =      1.0E-06
     mixing beta               =       0.7000
     number of iterations used =            8  plain     mixing
     Exchange-correlation      = PBE ( 1  4  3  4 0 0)

     celldm(1)=   8.899346  celldm(2)=   0.000000  celldm(3)=   0.000000
     celldm(4)=   0.000000  celldm(5)=   0.000000  celldm(6)=   0.000000

     crystal axes: (cart. coord. in units of alat)
               a(1) = (   0.000000   0.707107   0.707107 )
               a(2) = (   0.707107   0.000000   0.707107 )
               a(3) = (   0.707107   0.707107   0.000000 )

     reciprocal axes: (cart. coord. in units 2 pi/alat)
               b(1) = ( -0.707107  0.707107  0.707107 )
               b(2) = (  0.707107 -0.707107  0.707107 )
               b(3) = (  0.707107  0.707107 -0.707107 )

     PseudoPot. # 1 for Sn read from file:
     ../PseudopotentialDatabase/Sn_ONCV_PBE_FR-1.1.upf
     MD5 check sum: 6dd2180f739ea5ae1610ead5e1628a0e
     Pseudo is Norm-conserving, Zval = 14.0
     Generated using ONCVPSP code by D. R. Hamann
     Using radial grid of  602 points,  6 beta functions with:
                l(1) =   0
                l(2) =   0
                l(3) =   1
                l(4) =   1
                l(5) =   2
                l(6) =   2

     atomic species   valence    mass     pseudopotential
        Sn            14.00   118.71000     Sn( 1.00)

     24 Sym. Ops. (no inversion) found
          (note: 24 additional sym.ops. were found but ignored
           their fractional translations are incommensurate with FFT grid)

                                    s                        frac. trans.

      isym =  1     identity

 cryst.   s( 1) = (     1          0          0      )
                  (     0          1          0      )
                  (     0          0          1      )

 cart.    s( 1) = (  1.0000000  0.0000000  0.0000000 )
                  (  0.0000000  1.0000000  0.0000000 )
                  (  0.0000000  0.0000000  1.0000000 )

      isym =  2     180 deg rotation - cart. axis [0,0,1]

[...]

 cryst.   s( 9) = (     0          1          0      )
                  (     0          0          1      )
                  (     1          0          0      )

 cart.    s( 9) = (  0.0000000  0.0000000  1.0000000 )
                  (  1.0000000  0.0000000  0.0000000 )
                  (  0.0000000  1.0000000  0.0000000 )

[...]

 cryst.   s(10) = (    -1          0          1      )
                  (    -1          1          0      )
                  (    -1          0          0      )

 cart.    s(10) = (  0.0000000  0.0000000  1.0000000 )
                  ( -1.0000000  0.0000000  0.0000000 )
                  (  0.0000000 -1.0000000  0.0000000 )

[...]

      isym = 12     120 deg rotation - cart. axis [-1,-1,1]

[...]

      isym = 13     inv. 180 deg rotation - cart. axis [1,1,0]

[...]

      isym = 24     inv.  90 deg rotation - cart. axis [1,0,0]

 cryst.   s(24) = (     0         -1          1      )
                  (     1         -1          0      )
                  (     0         -1          0      )

 cart.    s(24) = ( -1.0000000  0.0000000  0.0000000 )
                  (  0.0000000  0.0000000  1.0000000 )
                  (  0.0000000 -1.0000000  0.0000000 )

   Cartesian axes

     site n.     atom                  positions (alat units)
         1           Sn  tau(   1) = (   0.0000000   0.0000000   0.0000000  )
         2           Sn  tau(   2) = (   0.3535534   0.3535534   0.3535534  )

   Crystallographic axes

     site n.     atom                  positions (cryst. coord.)
         1           Sn  tau(   1) = (  0.0000000  0.0000000  0.0000000  )
         2           Sn  tau(   2) = (  0.2500000  0.2500000  0.2500000  )

     number of k points=  1140  gaussian smearing, width (Ry)=  0.0001
                       cart. coord. in units 2pi/alat
        k(    1) = (   0.0000000   0.0000000   0.0000000), wk =   0.0000466
        k(    2) = (   0.0202031   0.0202031  -0.0202031), wk =   0.0003732
        k(    3) = (   0.0404061   0.0404061  -0.0404061), wk =   0.0003732
        k(    4) = (   0.0606092   0.0606092  -0.0606092), wk =   0.0003732
        k(    5) = (   0.0808122   0.0808122  -0.0808122), wk =   0.0003732
        k(    6) = (   0.1010153   0.1010153  -0.1010153), wk =   0.0003732
        k(    7) = (   0.1212183   0.1212183  -0.1212183), wk =   0.0003732
        k(    8) = (   0.1414214   0.1414214  -0.1414214), wk =   0.0003732
        k(    9) = (   0.1616244   0.1616244  -0.1616244), wk =   0.0003732
        k(   10) = (   0.1818275   0.1818275  -0.1818275), wk =   0.0003732
        k(   11) = (   0.2020305   0.2020305  -0.2020305), wk =   0.0003732
        k(   12) = (   0.2222336   0.2222336  -0.2222336), wk =   0.0003732
        k(   13) = (   0.2424366   0.2424366  -0.2424366), wk =   0.0003732
        k(   14) = (   0.2626397   0.2626397  -0.2626397), wk =   0.0003732
        k(   15) = (   0.2828427   0.2828427  -0.2828427), wk =   0.0003732
        k(   16) = (   0.3030458   0.3030458  -0.3030458), wk =   0.0003732
        k(   17) = (   0.3232488   0.3232488  -0.3232488), wk =   0.0003732
        k(   18) = (   0.3434519   0.3434519  -0.3434519), wk =   0.0003732
        k(   19) = (   0.0404061   0.0000000   0.0000000), wk =   0.0002799
        k(   20) = (   0.0606092   0.0202031  -0.0202031), wk =   0.0011195
        k(   21) = (   0.0808122   0.0404061  -0.0404061), wk =   0.0011195
        k(   22) = (   0.1010153   0.0606092  -0.0606092), wk =   0.0011195
        k(   23) = (   0.1212183   0.0808122  -0.0808122), wk =   0.0011195
        k(   24) = (   0.1414214   0.1010153  -0.1010153), wk =   0.0011195
        k(   25) = (   0.1616244   0.1212183  -0.1212183), wk =   0.0011195
        k(   26) = (   0.1818275   0.1414214  -0.1414214), wk =   0.0011195
        k(   27) = (   0.2020305   0.1616244  -0.1616244), wk =   0.0011195
        k(   28) = (   0.2222336   0.1818275  -0.1818275), wk =   0.0011195
        k(   29) = (   0.2424366   0.2020305  -0.2020305), wk =   0.0011195
        k(   30) = (   0.2626397   0.2222336  -0.2222336), wk =   0.0011195
        k(   31) = (   0.2828427   0.2424366  -0.2424366), wk =   0.0011195
        k(   32) = (   0.3030458   0.2626397  -0.2626397), wk =   0.0011195
        k(   33) = (   0.3232488   0.2828427  -0.2828427), wk =   0.0011195
        k(   34) = (   0.3434519   0.3030458  -0.3030458), wk =   0.0011195
        k(   35) = (   0.3636549   0.3232488  -0.3232488), wk =   0.0011195
        k(   36) = (  -0.3232488  -0.3636549   0.3636549), wk =   0.0011195
        k(   37) = (  -0.3030458  -0.3434519   0.3434519), wk =   0.0011195
        k(   38) = (  -0.2828427  -0.3232488   0.3232488), wk =   0.0011195
        k(   39) = (  -0.2626397  -0.3030458   0.3030458), wk =   0.0011195
        k(   40) = (  -0.2424366  -0.2828427   0.2828427), wk =   0.0011195
        k(   41) = (  -0.2222336  -0.2626397   0.2626397), wk =   0.0011195
        k(   42) = (  -0.2020305  -0.2424366   0.2424366), wk =   0.0011195
        k(   43) = (  -0.1818275  -0.2222336   0.2222336), wk =   0.0011195
        k(   44) = (  -0.1616244  -0.2020305   0.2020305), wk =   0.0011195
        k(   45) = (  -0.1414214  -0.1818275   0.1818275), wk =   0.0011195
        k(   46) = (  -0.1212183  -0.1616244   0.1616244), wk =   0.0011195
        k(   47) = (  -0.1010153  -0.1414214   0.1414214), wk =   0.0011195
        k(   48) = (  -0.0808122  -0.1212183   0.1212183), wk =   0.0011195
        k(   49) = (  -0.0606092  -0.1010153   0.1010153), wk =   0.0011195
        k(   50) = (  -0.0404061  -0.0808122   0.0808122), wk =   0.0011195
        k(   51) = (  -0.0202031  -0.0606092   0.0606092), wk =   0.0011195
        k(   52) = (  -0.0000000  -0.0404061   0.0404061), wk =   0.0005598
        k(   53) = (   0.0808122   0.0000000   0.0000000), wk =   0.0002799
        k(   54) = (   0.1010153   0.0202031  -0.0202031), wk =   0.0011195
        k(   55) = (   0.1212183   0.0404061  -0.0404061), wk =   0.0011195
        k(   56) = (   0.1414214   0.0606092  -0.0606092), wk =   0.0011195
        k(   57) = (   0.1616244   0.0808122  -0.0808122), wk =   0.0011195
        k(   58) = (   0.1818275   0.1010153  -0.1010153), wk =   0.0011195
        k(   59) = (   0.2020305   0.1212183  -0.1212183), wk =   0.0011195
        k(   60) = (   0.2222336   0.1414214  -0.1414214), wk =   0.0011195
[...]
        k( 1126) = (  -0.0808122  -0.4040610   0.6869037), wk =   0.0022391
        k( 1127) = (  -0.0606092  -0.3838580   0.6667007), wk =   0.0022391
        k( 1128) = (  -0.0404061  -0.3636549   0.6464976), wk =   0.0022391
        k( 1129) = (  -0.0202031  -0.3434519   0.6262946), wk =   0.0022391
        k( 1130) = (   0.0000000  -0.3232488   0.6060915), wk =   0.0011195
        k( 1131) = (  -0.0606092  -0.4242641   0.7071068), wk =   0.0011195
        k( 1132) = (  -0.0404061  -0.4040610   0.6869037), wk =   0.0022391
        k( 1133) = (  -0.0202031  -0.3838580   0.6667007), wk =   0.0022391
        k( 1134) = (  -0.0000000  -0.3636549   0.6464976), wk =   0.0011195
        k( 1135) = (  -0.0202031  -0.4242641   0.7071068), wk =   0.0011195
        k( 1136) = (  -0.0000000  -0.4040610   0.6869037), wk =   0.0011195
        k( 1137) = (  -0.0606092  -0.3838580   0.7071068), wk =   0.0011195
        k( 1138) = (  -0.0404061  -0.3636549   0.6869037), wk =   0.0022391
        k( 1139) = (  -0.0202031  -0.3838580   0.7071068), wk =   0.0011195
        k( 1140) = (   0.0000000  -0.3636549   0.6869037), wk =   0.0011195

                       cryst. coord.
        k(    1) = (   0.0000000   0.0000000   0.0000000), wk =   0.0000466
        k(    2) = (   0.0000000   0.0000000   0.0285714), wk =   0.0003732
        k(    3) = (   0.0000000   0.0000000   0.0571429), wk =   0.0003732
        k(    4) = (   0.0000000   0.0000000   0.0857143), wk =   0.0003732
        k(    5) = (   0.0000000   0.0000000   0.1142857), wk =   0.0003732
        k(    6) = (   0.0000000   0.0000000   0.1428571), wk =   0.0003732
        k(    7) = (   0.0000000   0.0000000   0.1714286), wk =   0.0003732
        k(    8) = (   0.0000000   0.0000000   0.2000000), wk =   0.0003732
        k(    9) = (   0.0000000   0.0000000   0.2285714), wk =   0.0003732
        k(   10) = (   0.0000000   0.0000000   0.2571429), wk =   0.0003732
        k(   11) = (   0.0000000   0.0000000   0.2857143), wk =   0.0003732
        k(   12) = (   0.0000000   0.0000000   0.3142857), wk =   0.0003732
        k(   13) = (   0.0000000   0.0000000   0.3428571), wk =   0.0003732
        k(   14) = (   0.0000000   0.0000000   0.3714286), wk =   0.0003732
        k(   15) = (   0.0000000   0.0000000   0.4000000), wk =   0.0003732
        k(   16) = (   0.0000000   0.0000000   0.4285714), wk =   0.0003732
        k(   17) = (   0.0000000   0.0000000   0.4571429), wk =   0.0003732
        k(   18) = (   0.0000000   0.0000000   0.4857143), wk =   0.0003732
        k(   19) = (   0.0000000   0.0285714   0.0285714), wk =   0.0002799
        k(   20) = (   0.0000000   0.0285714   0.0571429), wk =   0.0011195
        k(   21) = (   0.0000000   0.0285714   0.0857143), wk =   0.0011195
        k(   22) = (   0.0000000   0.0285714   0.1142857), wk =   0.0011195
        k(   23) = (   0.0000000   0.0285714   0.1428571), wk =   0.0011195
        k(   24) = (   0.0000000   0.0285714   0.1714286), wk =   0.0011195
        k(   25) = (   0.0000000   0.0285714   0.2000000), wk =   0.0011195
        k(   26) = (   0.0000000   0.0285714   0.2285714), wk =   0.0011195
        k(   27) = (   0.0000000   0.0285714   0.2571429), wk =   0.0011195
        k(   28) = (   0.0000000   0.0285714   0.2857143), wk =   0.0011195
        k(   29) = (   0.0000000   0.0285714   0.3142857), wk =   0.0011195
        k(   30) = (   0.0000000   0.0285714   0.3428571), wk =   0.0011195
        k(   31) = (   0.0000000   0.0285714   0.3714286), wk =   0.0011195
        k(   32) = (   0.0000000   0.0285714   0.4000000), wk =   0.0011195
        k(   33) = (   0.0000000   0.0285714   0.4285714), wk =   0.0011195
        k(   34) = (   0.0000000   0.0285714   0.4571429), wk =   0.0011195
        k(   35) = (   0.0000000   0.0285714   0.4857143), wk =   0.0011195
        k(   36) = (   0.0000000   0.0285714  -0.4857143), wk =   0.0011195
        k(   37) = (   0.0000000   0.0285714  -0.4571429), wk =   0.0011195
        k(   38) = (   0.0000000   0.0285714  -0.4285714), wk =   0.0011195
        k(   39) = (   0.0000000   0.0285714  -0.4000000), wk =   0.0011195
        k(   40) = (   0.0000000   0.0285714  -0.3714286), wk =   0.0011195
        k(   41) = (   0.0000000   0.0285714  -0.3428571), wk =   0.0011195
        k(   42) = (   0.0000000   0.0285714  -0.3142857), wk =   0.0011195
        k(   43) = (   0.0000000   0.0285714  -0.2857143), wk =   0.0011195
        k(   44) = (   0.0000000   0.0285714  -0.2571429), wk =   0.0011195
        k(   45) = (   0.0000000   0.0285714  -0.2285714), wk =   0.0011195
        k(   46) = (   0.0000000   0.0285714  -0.2000000), wk =   0.0011195
        k(   47) = (   0.0000000   0.0285714  -0.1714286), wk =   0.0011195
        k(   48) = (   0.0000000   0.0285714  -0.1428571), wk =   0.0011195
        k(   49) = (   0.0000000   0.0285714  -0.1142857), wk =   0.0011195
        k(   50) = (   0.0000000   0.0285714  -0.0857143), wk =   0.0011195
        k(   51) = (   0.0000000   0.0285714  -0.0571429), wk =   0.0011195
        k(   52) = (   0.0000000   0.0285714  -0.0285714), wk =   0.0005598
        k(   53) = (   0.0000000   0.0571429   0.0571429), wk =   0.0002799
        k(   54) = (   0.0000000   0.0571429   0.0857143), wk =   0.0011195
        k(   55) = (   0.0000000   0.0571429   0.1142857), wk =   0.0011195
        k(   56) = (   0.0000000   0.0571429   0.1428571), wk =   0.0011195
        k(   57) = (   0.0000000   0.0571429   0.1714286), wk =   0.0011195
        k(   58) = (   0.0000000   0.0571429   0.2000000), wk =   0.0011195
        k(   59) = (   0.0000000   0.0571429   0.2285714), wk =   0.0011195
        k(   60) = (   0.0000000   0.0571429   0.2571429), wk =   0.0011195
[...]
        k( 1126) = (   0.2000000   0.4285714  -0.3428571), wk =   0.0022391
        k( 1127) = (   0.2000000   0.4285714  -0.3142857), wk =   0.0022391
        k( 1128) = (   0.2000000   0.4285714  -0.2857143), wk =   0.0022391
        k( 1129) = (   0.2000000   0.4285714  -0.2571429), wk =   0.0022391
        k( 1130) = (   0.2000000   0.4285714  -0.2285714), wk =   0.0011195
        k( 1131) = (   0.2000000   0.4571429  -0.3428571), wk =   0.0011195
        k( 1132) = (   0.2000000   0.4571429  -0.3142857), wk =   0.0022391
        k( 1133) = (   0.2000000   0.4571429  -0.2857143), wk =   0.0022391
        k( 1134) = (   0.2000000   0.4571429  -0.2571429), wk =   0.0011195
        k( 1135) = (   0.2000000   0.4857143  -0.3142857), wk =   0.0011195
        k( 1136) = (   0.2000000   0.4857143  -0.2857143), wk =   0.0011195
        k( 1137) = (   0.2285714   0.4571429  -0.3142857), wk =   0.0011195
        k( 1138) = (   0.2285714   0.4571429  -0.2857143), wk =   0.0022391
        k( 1139) = (   0.2285714   0.4857143  -0.2857143), wk =   0.0011195
        k( 1140) = (   0.2285714   0.4857143  -0.2571429), wk =   0.0011195

     Largest allocated arrays     est. size (Mb)     dimensions
     Largest temporary arrays     est. size (Mb)     dimensions

     Initial potential from superposition of free atoms

     starting charge   27.82601, renormalised to   28.00000
     Starting wfc are random

     Self-consistent Calculation

     iteration #  1     ecut=   200.00 Ry     beta=0.70
     Davidson diagonalization with overlap
     ethr =  1.00E-02,  avg # of iterations =  7.0

     total energy              =    -233.14041753 Ry
     Harris-Foulkes estimate   =    -234.57552833 Ry
     estimated scf accuracy    <       2.29119302 Ry

[...]

     total energy              =    -233.44841074 Ry
     Harris-Foulkes estimate   =    -233.44840835 Ry
     estimated scf accuracy    <       0.00002835 Ry

     iteration #  5     ecut=   200.00 Ry     beta=0.70
     Davidson diagonalization with overlap
     ethr =  1.01E-07,  avg # of iterations =  2.5

     End of self-consistent calculation

          k = 0.0000 0.0000 0.0000 ( 23589 PWs)   bands (ev):

   -12.3736 -12.3736 -12.3736 -12.3219 -12.3219 -12.1096 -12.1096 -12.1096
   -12.0998 -12.0998  -2.3996   5.2267   8.6187   8.6187   8.6187  10.8767
    10.8767  10.8767

     occupation numbers
     1.0000   1.0000   1.0000   1.0000   1.0000   1.0000   1.0000   1.0000
     1.0000   1.0000   1.0000   1.0000   0.0000   0.0000   0.0000   0.0000
     0.0000   0.0000

[...]

          k =-0.3232-0.3637 0.3637 ( 23786 PWs)   bands (ev):

[...]

          k =-0.0202-0.3839 0.7071 ( 23840 PWs)   bands (ev):

[...]

          k = 0.0000-0.3637 0.6869 ( 23842 PWs)   bands (ev):

   -12.4223 -12.4207 -12.2756 -12.2656 -12.2198 -12.2129 -12.1916 -12.1834
   -12.0452 -12.0436   0.2091   0.3916   5.8255   5.9535  11.1703  11.4052
    12.9835  13.0854

     occupation numbers
     1.0000   1.0000   1.0000   1.0000   1.0000   1.0000   1.0000   1.0000
     1.0000   1.0000   1.0000   1.0000   1.0000   1.0000   0.0000   0.0000
     0.0000   0.0000

     the Fermi energy is     8.2877 ev

!    total energy              =    -233.44841504 Ry
     Harris-Foulkes estimate   =    -233.44841520 Ry
     estimated scf accuracy    <       0.00000043 Ry

     The total energy is the sum of the following terms:

     one-electron contribution =     -95.31686466 Ry
     hartree contribution      =      58.35676120 Ry
     xc contribution           =     -28.70696995 Ry
     ewald contribution        =    -167.78134157 Ry
     smearing contrib. (-TS)   =      -0.00000006 Ry

     convergence has been achieved in   5 iterations

     Writing output data file Sn.save

     General routines

     Parallel routines

   This run was terminated on:  21:35: 7  27Feb2020

   JOB DONE.