     Program PWSCF v.5.4.0 starts on  8Mar2020 at 22:56:36

     Current dimensions of program PWSCF are:
     Max number of different atomic species (ntypx) = 10
     Max number of k-points (npk) =  40000
     Max angular momentum in pseudopotentials (lmaxx) =  3
               file Sn.rel-pbe-dn-kjpaw_psl.1.0.0.UPF: wavefunction(s)  5S 5P 5P 4D 4D renormalized

     Subspace diagonalization in iterative solution of the eigenvalue problem:
     a serial algorithm will be used

     Title:
     Sn

     bravais-lattice index     =            0
     lattice parameter (alat)  =       8.7524  a.u.
     unit-cell volume          =     474.0897 (a.u.)^3
     number of atoms/cell      =            2
     number of atomic types    =            1
     number of electrons       =        28.00
     number of Kohn-Sham states=           36
     kinetic-energy cutoff     =      40.0000  Ry
     charge density cutoff     =     160.0000  Ry
     convergence threshold     =      1.0E-06
     mixing beta               =       0.7000
     number of iterations used =            8  plain     mixing
     Exchange-correlation      =  SLA  PW   PBX  PBC ( 1  4  3  4 0 0)
     Non magnetic calculation with spin-orbit

     celldm(1)=   8.752360  celldm(2)=   0.000000  celldm(3)=   0.000000
     celldm(4)=   0.000000  celldm(5)=   0.000000  celldm(6)=   0.000000

     crystal axes: (cart. coord. in units of alat)
               a(1) = (   0.000000   0.707107   0.707107 )
               a(2) = (   0.707107   0.000000   0.707107 )
               a(3) = (   0.707107   0.707107   0.000000 )

     reciprocal axes: (cart. coord. in units 2 pi/alat)
               b(1) = ( -0.707107  0.707107  0.707107 )
               b(2) = (  0.707107 -0.707107  0.707107 )
               b(3) = (  0.707107  0.707107 -0.707107 )

     PseudoPot. # 1 for Sn read from file:
     ../PseudopotentialDatabase/Sn.rel-pbe-dn-kjpaw_psl.1.0.0.UPF
     MD5 check sum: 6bcaba2b82cf8d008985ef5bb9854e68
     Pseudo is Projector augmented-wave + core cor, Zval = 14.0
     Generated using "atomic" code by A. Dal Corso  v.6.3
     Shape of augmentation charge: PSQ
     Using radial grid of 1243 points, 10 beta functions with:
                l(1) =   0
                l(2) =   0
                l(3) =   1
                l(4) =   1
                l(5) =   1
                l(6) =   1
                l(7) =   2
                l(8) =   2
                l(9) =   2
               l(10) =   2
     Q(r) pseudized with 0 coefficients

     atomic species   valence    mass     pseudopotential
        Sn            14.00   118.71000     Sn( 1.00)

     48 Sym. Ops., with inversion, found (24 have fractional translation)

                                    s                        frac. trans.

      isym =  1     identity

 cryst.   s( 1) = (     1          0          0      )
                  (     0          1          0      )
                  (     0          0          1      )

 cart.    s( 1) = (  1.0000000  0.0000000  0.0000000 )
                  (  0.0000000  1.0000000  0.0000000 )
                  (  0.0000000  0.0000000  1.0000000 )

      isym =  2     180 deg rotation - cart. axis [0,0,1]

[...]

 cryst.   s( 4) = (    -1          0          0      )
                  (    -1          0          1      )
                  (    -1          1          0      )

 cart.    s( 4) = (  1.0000000  0.0000000  0.0000000 )
                  (  0.0000000 -1.0000000  0.0000000 )
                  (  0.0000000  0.0000000 -1.0000000 )

[...]

 cryst.   s( 5) = (    -1          0          1      )    f =( -0.2500000 )
                  (     0         -1          1      )       ( -0.2500000 )
                  (     0          0          1      )       ( -0.2500000 )

 cart.    s( 5) = (  0.0000000  1.0000000  0.0000000 )    f =( -0.3535534 )
                  (  1.0000000  0.0000000  0.0000000 )       ( -0.3535534 )
                  (  0.0000000  0.0000000 -1.0000000 )       ( -0.3535534 )

[...]

 cryst.   s( 9) = (    -1          1          0      )    f =( -0.2500000 )
                  (     0          1          0      )       ( -0.2500000 )
                  (     0          1         -1      )       ( -0.2500000 )

 cart.    s( 9) = (  0.0000000  0.0000000  1.0000000 )    f =( -0.3535534 )
                  (  0.0000000 -1.0000000  0.0000000 )       ( -0.3535534 )
                  (  1.0000000  0.0000000  0.0000000 )       ( -0.3535534 )

[...]

 cryst.   s(10) = (     0          0         -1      )    f =( -0.2500000 )
                  (     0         -1          0      )       ( -0.2500000 )
                  (    -1          0          0      )       ( -0.2500000 )

 cart.    s(10) = (  0.0000000  0.0000000 -1.0000000 )    f =( -0.3535534 )
                  (  0.0000000 -1.0000000  0.0000000 )       ( -0.3535534 )
                  ( -1.0000000  0.0000000  0.0000000 )       ( -0.3535534 )

[...]

 cryst.   s(17) = (     0          0          1      )
                  (     1          0          0      )
                  (     0          1          0      )

 cart.    s(17) = (  0.0000000  1.0000000  0.0000000 )
                  (  0.0000000  0.0000000  1.0000000 )
                  (  1.0000000  0.0000000  0.0000000 )

[...]

      isym = 24     120 deg rotation - cart. axis [-1,-1,1]

[...]

      isym = 25     inversion

[...]

      isym = 26     inv. 180 deg rotation - cart. axis [0,0,1]

[...]

 cryst.   s(40) = (     0         -1          1      )
                  (     1         -1          0      )
                  (     0         -1          0      )

 cart.    s(40) = ( -1.0000000  0.0000000  0.0000000 )
                  (  0.0000000  0.0000000  1.0000000 )
                  (  0.0000000 -1.0000000  0.0000000 )

[...]

      isym = 48     inv. 120 deg rotation - cart. axis [-1,-1,1]

 cryst.   s(48) = (     0          1          0      )    f =( -0.2500000 )
                  (    -1          1          0      )       ( -0.2500000 )
                  (     0          1         -1      )       ( -0.2500000 )

 cart.    s(48) = (  0.0000000  0.0000000  1.0000000 )    f =( -0.3535534 )
                  ( -1.0000000  0.0000000  0.0000000 )       ( -0.3535534 )
                  (  0.0000000  1.0000000  0.0000000 )       ( -0.3535534 )

   Cartesian axes

     site n.     atom                  positions (alat units)
         1           Sn  tau(   1) = (   0.0000000   0.0000000   0.0000000  )
         2           Sn  tau(   2) = (   0.3535534   0.3535534   0.3535534  )

   Crystallographic axes

     site n.     atom                  positions (cryst. coord.)
         1           Sn  tau(   1) = (  0.0000000  0.0000000  0.0000000  )
         2           Sn  tau(   2) = (  0.2500000  0.2500000  0.2500000  )

     number of k points=   680  gaussian smearing, width (Ry)=  0.0001
                       cart. coord. in units 2pi/alat
        k(    1) = (   0.0000000   0.0000000   0.0000000), wk =   0.0000410
        k(    2) = (   0.0243830   0.0243830  -0.0243830), wk =   0.0003280
        k(    3) = (   0.0487660   0.0487660  -0.0487660), wk =   0.0003280
        k(    4) = (   0.0731490   0.0731490  -0.0731490), wk =   0.0003280
        k(    5) = (   0.0975320   0.0975320  -0.0975320), wk =   0.0003280
        k(    6) = (   0.1219150   0.1219150  -0.1219150), wk =   0.0003280
        k(    7) = (   0.1462980   0.1462980  -0.1462980), wk =   0.0003280
        k(    8) = (   0.1706809   0.1706809  -0.1706809), wk =   0.0003280
        k(    9) = (   0.1950639   0.1950639  -0.1950639), wk =   0.0003280
        k(   10) = (   0.2194469   0.2194469  -0.2194469), wk =   0.0003280
        k(   11) = (   0.2438299   0.2438299  -0.2438299), wk =   0.0003280
        k(   12) = (   0.2682129   0.2682129  -0.2682129), wk =   0.0003280
        k(   13) = (   0.2925959   0.2925959  -0.2925959), wk =   0.0003280
        k(   14) = (   0.3169789   0.3169789  -0.3169789), wk =   0.0003280
        k(   15) = (   0.3413619   0.3413619  -0.3413619), wk =   0.0003280
        k(   16) = (   0.0487660   0.0000000   0.0000000), wk =   0.0002460
        k(   17) = (   0.0731490   0.0243830  -0.0243830), wk =   0.0009841
        k(   18) = (   0.0975320   0.0487660  -0.0487660), wk =   0.0009841
        k(   19) = (   0.1219150   0.0731490  -0.0731490), wk =   0.0009841
        k(   20) = (   0.1462980   0.0975320  -0.0975320), wk =   0.0009841
        k(   21) = (   0.1706809   0.1219150  -0.1219150), wk =   0.0009841
        k(   22) = (   0.1950639   0.1462980  -0.1462980), wk =   0.0009841
        k(   23) = (   0.2194469   0.1706809  -0.1706809), wk =   0.0009841
        k(   24) = (   0.2438299   0.1950639  -0.1950639), wk =   0.0009841
        k(   25) = (   0.2682129   0.2194469  -0.2194469), wk =   0.0009841
        k(   26) = (   0.2925959   0.2438299  -0.2438299), wk =   0.0009841
        k(   27) = (   0.3169789   0.2682129  -0.2682129), wk =   0.0009841
        k(   28) = (   0.3413619   0.2925959  -0.2925959), wk =   0.0009841
        k(   29) = (   0.3657449   0.3169789  -0.3169789), wk =   0.0009841
        k(   30) = (  -0.3169789  -0.3657449   0.3657449), wk =   0.0009841
        k(   31) = (  -0.2925959  -0.3413619   0.3413619), wk =   0.0009841
        k(   32) = (  -0.2682129  -0.3169789   0.3169789), wk =   0.0009841
        k(   33) = (  -0.2438299  -0.2925959   0.2925959), wk =   0.0009841
        k(   34) = (  -0.2194469  -0.2682129   0.2682129), wk =   0.0009841
        k(   35) = (  -0.1950639  -0.2438299   0.2438299), wk =   0.0009841
        k(   36) = (  -0.1706809  -0.2194469   0.2194469), wk =   0.0009841
        k(   37) = (  -0.1462980  -0.1950639   0.1950639), wk =   0.0009841
        k(   38) = (  -0.1219150  -0.1706809   0.1706809), wk =   0.0009841
        k(   39) = (  -0.0975320  -0.1462980   0.1462980), wk =   0.0009841
        k(   40) = (  -0.0731490  -0.1219150   0.1219150), wk =   0.0009841
        k(   41) = (  -0.0487660  -0.0975320   0.0975320), wk =   0.0009841
        k(   42) = (  -0.0243830  -0.0731490   0.0731490), wk =   0.0009841
        k(   43) = (   0.0000000  -0.0487660   0.0487660), wk =   0.0004920
        k(   44) = (   0.0975320   0.0000000   0.0000000), wk =   0.0002460
        k(   45) = (   0.1219150   0.0243830  -0.0243830), wk =   0.0009841
        k(   46) = (   0.1462980   0.0487660  -0.0487660), wk =   0.0009841
        k(   47) = (   0.1706809   0.0731490  -0.0731490), wk =   0.0009841
        k(   48) = (   0.1950639   0.0975320  -0.0975320), wk =   0.0009841
        k(   49) = (   0.2194469   0.1219150  -0.1219150), wk =   0.0009841
        k(   50) = (   0.2438299   0.1462980  -0.1462980), wk =   0.0009841
        k(   51) = (   0.2682129   0.1706809  -0.1706809), wk =   0.0009841
        k(   52) = (   0.2925959   0.1950639  -0.1950639), wk =   0.0009841
        k(   53) = (   0.3169789   0.2194469  -0.2194469), wk =   0.0009841
        k(   54) = (   0.3413619   0.2438299  -0.2438299), wk =   0.0009841
        k(   55) = (   0.3657449   0.2682129  -0.2682129), wk =   0.0009841
        k(   56) = (   0.3901279   0.2925959  -0.2925959), wk =   0.0009841
        k(   57) = (  -0.2925959  -0.3901279   0.3901279), wk =   0.0009841
        k(   58) = (  -0.2682129  -0.3657449   0.3657449), wk =   0.0009841
        k(   59) = (  -0.2438299  -0.3413619   0.3413619), wk =   0.0009841
        k(   60) = (  -0.2194469  -0.3169789   0.3169789), wk =   0.0009841
[...]
        k(  666) = (  -0.0487660  -0.4388939   0.6827238), wk =   0.0019681
        k(  667) = (  -0.0243830  -0.4145109   0.6583408), wk =   0.0019681
        k(  668) = (  -0.0000000  -0.3901279   0.6339578), wk =   0.0009841
        k(  669) = (  -0.0243830  -0.4632769   0.7071068), wk =   0.0009841
        k(  670) = (   0.0000000  -0.4388939   0.6827238), wk =   0.0009841
        k(  671) = (  -0.1219150  -0.4145109   0.7071068), wk =   0.0009841
        k(  672) = (  -0.0975320  -0.3901279   0.6827238), wk =   0.0019681
        k(  673) = (  -0.0731490  -0.3657449   0.6583408), wk =   0.0019681
        k(  674) = (  -0.0731490  -0.4145109   0.7071068), wk =   0.0009841
        k(  675) = (  -0.0487660  -0.3901279   0.6827238), wk =   0.0019681
        k(  676) = (  -0.0243830  -0.3657449   0.6583408), wk =   0.0019681
        k(  677) = (  -0.0000000  -0.3413619   0.6339578), wk =   0.0009841
        k(  678) = (  -0.0243830  -0.4145109   0.7071068), wk =   0.0009841
        k(  679) = (   0.0000000  -0.3901279   0.6827238), wk =   0.0009841
        k(  680) = (  -0.0243830  -0.3657449   0.7071068), wk =   0.0009841

                       cryst. coord.
        k(    1) = (   0.0000000   0.0000000   0.0000000), wk =   0.0000410
        k(    2) = (   0.0000000   0.0000000   0.0344828), wk =   0.0003280
        k(    3) = (   0.0000000   0.0000000   0.0689655), wk =   0.0003280
        k(    4) = (   0.0000000   0.0000000   0.1034483), wk =   0.0003280
        k(    5) = (   0.0000000   0.0000000   0.1379310), wk =   0.0003280
        k(    6) = (   0.0000000   0.0000000   0.1724138), wk =   0.0003280
        k(    7) = (   0.0000000   0.0000000   0.2068966), wk =   0.0003280
        k(    8) = (   0.0000000   0.0000000   0.2413793), wk =   0.0003280
        k(    9) = (   0.0000000   0.0000000   0.2758621), wk =   0.0003280
        k(   10) = (   0.0000000   0.0000000   0.3103448), wk =   0.0003280
        k(   11) = (   0.0000000   0.0000000   0.3448276), wk =   0.0003280
        k(   12) = (   0.0000000   0.0000000   0.3793103), wk =   0.0003280
        k(   13) = (   0.0000000   0.0000000   0.4137931), wk =   0.0003280
        k(   14) = (   0.0000000   0.0000000   0.4482759), wk =   0.0003280
        k(   15) = (   0.0000000   0.0000000   0.4827586), wk =   0.0003280
        k(   16) = (   0.0000000   0.0344828   0.0344828), wk =   0.0002460
        k(   17) = (   0.0000000   0.0344828   0.0689655), wk =   0.0009841
        k(   18) = (   0.0000000   0.0344828   0.1034483), wk =   0.0009841
        k(   19) = (   0.0000000   0.0344828   0.1379310), wk =   0.0009841
        k(   20) = (   0.0000000   0.0344828   0.1724138), wk =   0.0009841
        k(   21) = (   0.0000000   0.0344828   0.2068966), wk =   0.0009841
        k(   22) = (   0.0000000   0.0344828   0.2413793), wk =   0.0009841
        k(   23) = (   0.0000000   0.0344828   0.2758621), wk =   0.0009841
        k(   24) = (   0.0000000   0.0344828   0.3103448), wk =   0.0009841
        k(   25) = (   0.0000000   0.0344828   0.3448276), wk =   0.0009841
        k(   26) = (   0.0000000   0.0344828   0.3793103), wk =   0.0009841
        k(   27) = (   0.0000000   0.0344828   0.4137931), wk =   0.0009841
        k(   28) = (   0.0000000   0.0344828   0.4482759), wk =   0.0009841
        k(   29) = (   0.0000000   0.0344828   0.4827586), wk =   0.0009841
        k(   30) = (   0.0000000   0.0344828  -0.4827586), wk =   0.0009841
        k(   31) = (   0.0000000   0.0344828  -0.4482759), wk =   0.0009841
        k(   32) = (   0.0000000   0.0344828  -0.4137931), wk =   0.0009841
        k(   33) = (   0.0000000   0.0344828  -0.3793103), wk =   0.0009841
        k(   34) = (   0.0000000   0.0344828  -0.3448276), wk =   0.0009841
        k(   35) = (   0.0000000   0.0344828  -0.3103448), wk =   0.0009841
        k(   36) = (   0.0000000   0.0344828  -0.2758621), wk =   0.0009841
        k(   37) = (   0.0000000   0.0344828  -0.2413793), wk =   0.0009841
        k(   38) = (   0.0000000   0.0344828  -0.2068966), wk =   0.0009841
        k(   39) = (   0.0000000   0.0344828  -0.1724138), wk =   0.0009841
        k(   40) = (   0.0000000   0.0344828  -0.1379310), wk =   0.0009841
        k(   41) = (   0.0000000   0.0344828  -0.1034483), wk =   0.0009841
        k(   42) = (   0.0000000   0.0344828  -0.0689655), wk =   0.0009841
        k(   43) = (   0.0000000   0.0344828  -0.0344828), wk =   0.0004920
        k(   44) = (   0.0000000   0.0689655   0.0689655), wk =   0.0002460
        k(   45) = (   0.0000000   0.0689655   0.1034483), wk =   0.0009841
        k(   46) = (   0.0000000   0.0689655   0.1379310), wk =   0.0009841
        k(   47) = (   0.0000000   0.0689655   0.1724138), wk =   0.0009841
        k(   48) = (   0.0000000   0.0689655   0.2068966), wk =   0.0009841
        k(   49) = (   0.0000000   0.0689655   0.2413793), wk =   0.0009841
        k(   50) = (   0.0000000   0.0689655   0.2758621), wk =   0.0009841
        k(   51) = (   0.0000000   0.0689655   0.3103448), wk =   0.0009841
        k(   52) = (   0.0000000   0.0689655   0.3448276), wk =   0.0009841
        k(   53) = (   0.0000000   0.0689655   0.3793103), wk =   0.0009841
        k(   54) = (   0.0000000   0.0689655   0.4137931), wk =   0.0009841
        k(   55) = (   0.0000000   0.0689655   0.4482759), wk =   0.0009841
        k(   56) = (   0.0000000   0.0689655   0.4827586), wk =   0.0009841
        k(   57) = (   0.0000000   0.0689655  -0.4827586), wk =   0.0009841
        k(   58) = (   0.0000000   0.0689655  -0.4482759), wk =   0.0009841
        k(   59) = (   0.0000000   0.0689655  -0.4137931), wk =   0.0009841
        k(   60) = (   0.0000000   0.0689655  -0.3793103), wk =   0.0009841
[...]
        k(  666) = (   0.1724138   0.4482759  -0.3448276), wk =   0.0019681
        k(  667) = (   0.1724138   0.4482759  -0.3103448), wk =   0.0019681
        k(  668) = (   0.1724138   0.4482759  -0.2758621), wk =   0.0009841
        k(  669) = (   0.1724138   0.4827586  -0.3448276), wk =   0.0009841
        k(  670) = (   0.1724138   0.4827586  -0.3103448), wk =   0.0009841
        k(  671) = (   0.2068966   0.4137931  -0.3793103), wk =   0.0009841
        k(  672) = (   0.2068966   0.4137931  -0.3448276), wk =   0.0019681
        k(  673) = (   0.2068966   0.4137931  -0.3103448), wk =   0.0019681
        k(  674) = (   0.2068966   0.4482759  -0.3448276), wk =   0.0009841
        k(  675) = (   0.2068966   0.4482759  -0.3103448), wk =   0.0019681
        k(  676) = (   0.2068966   0.4482759  -0.2758621), wk =   0.0019681
        k(  677) = (   0.2068966   0.4482759  -0.2413793), wk =   0.0009841
        k(  678) = (   0.2068966   0.4827586  -0.3103448), wk =   0.0009841
        k(  679) = (   0.2068966   0.4827586  -0.2758621), wk =   0.0009841
        k(  680) = (   0.2413793   0.4827586  -0.2758621), wk =   0.0009841

     Largest allocated arrays     est. size (Mb)     dimensions
     Largest temporary arrays     est. size (Mb)     dimensions

     Check: negative/imaginary core charge=   -0.000003    0.000000

     Initial potential from superposition of free atoms

     starting charge   27.99781, renormalised to   28.00000
     Starting wfc are   36 randomized atomic wfcs
     Checking if some PAW data can be deallocated...

     Self-consistent Calculation

     iteration #  1     ecut=    40.00 Ry     beta=0.70
     Davidson diagonalization with overlap
     ethr =  1.00E-02,  avg # of iterations =  3.5

     Threshold (ethr) on eigenvalues was too large:
     Diagonalizing with lowered threshold

     Davidson diagonalization with overlap
     ethr =  6.15E-05,  avg # of iterations =  3.5

     total energy              =    -885.82664853 Ry
     Harris-Foulkes estimate   =    -885.82850620 Ry
     estimated scf accuracy    <       0.02074155 Ry

[...]

     total energy              =    -885.82840225 Ry
     Harris-Foulkes estimate   =    -885.82840042 Ry
     estimated scf accuracy    <       0.00000480 Ry

     iteration #  5     ecut=    40.00 Ry     beta=0.70
     Davidson diagonalization with overlap
     ethr =  1.71E-08,  avg # of iterations =  2.0

     End of self-consistent calculation

          k = 0.0000 0.0000 0.0000 (  2085 PWs)   bands (ev):

   -14.5613 -14.5613 -14.5613 -14.5613 -14.4664 -14.4664 -14.4664 -14.4664
   -13.6496 -13.6496 -13.4485 -13.4485 -13.4485 -13.4485 -13.4039 -13.4039
   -13.4039 -13.4039 -13.2886 -13.2886  -2.8484  -2.8484   6.7549   6.7549
     7.1950   7.1950   7.8629   7.8629   7.8629   7.8629   9.4036   9.4036
     9.8759   9.8759   9.8759   9.8759

     occupation numbers
     1.0000   1.0000   1.0000   1.0000   1.0000   1.0000   1.0000   1.0000
     1.0000   1.0000   1.0000   1.0000   1.0000   1.0000   1.0000   1.0000
     1.0000   1.0000   1.0000   1.0000   1.0000   1.0000   1.0000   1.0000
     1.0000   1.0000   0.0000   0.0000   0.0000   0.0000   0.0000   0.0000
     0.0000   0.0000   0.0000   0.0000

[...]

          k =-0.3170-0.3657 0.3657 (  2025 PWs)   bands (ev):

[...]

          k = 0.0000-0.3901 0.6827 (  2016 PWs)   bands (ev):

[...]

          k =-0.0244-0.3657 0.7071 (  2020 PWs)   bands (ev):

   -14.5544 -14.5544 -14.5236 -14.5236 -14.4848 -14.4848 -14.4390 -14.4390
   -13.5632 -13.5632 -13.5112 -13.5112 -13.4549 -13.4549 -13.4362 -13.4362
   -13.3258 -13.3258 -13.2720 -13.2720   0.0734   0.0734   0.3350   0.3350
     4.5172   4.5172   4.7554   4.7554  10.6884  10.6884  11.0205  11.0205
    11.5455  11.5455  11.8224  11.8224

     occupation numbers
     1.0000   1.0000   1.0000   1.0000   1.0000   1.0000   1.0000   1.0000
     1.0000   1.0000   1.0000   1.0000   1.0000   1.0000   1.0000   1.0000
     1.0000   1.0000   1.0000   1.0000   1.0000   1.0000   1.0000   1.0000
     1.0000   1.0000   1.0000   1.0000   0.0000   0.0000   0.0000   0.0000
     0.0000   0.0000   0.0000   0.0000

     the Fermi energy is     7.6775 ev

!    total energy              =    -885.82840311 Ry
     Harris-Foulkes estimate   =    -885.82840298 Ry
     estimated scf accuracy    <       0.00000013 Ry

     total all-electron energy =    -24716.528153 Ry

     The total energy is the sum of the following terms:

     one-electron contribution =    -148.92394635 Ry
     hartree contribution      =      93.71299879 Ry
     xc contribution           =     -96.16591133 Ry
     ewald contribution        =    -170.59904351 Ry
     one-center paw contrib.   =    -563.85250056 Ry
     smearing contrib. (-TS)   =      -0.00000015 Ry

     convergence has been achieved in   5 iterations

     Writing output data file Sn.save

     General routines

     Parallel routines

     PAW routines

   This run was terminated on:  23: 4:53   8Mar2020

   JOB DONE.