     Program PWSCF v.5.4.0 starts on  8Mar2020 at 21:10:46

     Current dimensions of program PWSCF are:
     Max number of different atomic species (ntypx) = 10
     Max number of k-points (npk) =  40000
     Max angular momentum in pseudopotentials (lmaxx) =  3
               file Sn.rel-pbe-dn-kjpaw_psl.1.0.0.UPF: wavefunction(s)  5S 5P 5P 4D 4D renormalized

     Subspace diagonalization in iterative solution of the eigenvalue problem:
     a serial algorithm will be used

     Title:
     Sn

     bravais-lattice index     =            0
     lattice parameter (alat)  =       8.7524  a.u.
     unit-cell volume          =     474.0897 (a.u.)^3
     number of atoms/cell      =            2
     number of atomic types    =            1
     number of electrons       =        28.00
     number of Kohn-Sham states=           36
     kinetic-energy cutoff     =      40.0000  Ry
     charge density cutoff     =     160.0000  Ry
     convergence threshold     =      1.0E-06
     mixing beta               =       0.7000
     number of iterations used =            8  plain     mixing
     Exchange-correlation      =  SLA  PW   PBX  PBC ( 1  4  3  4 0 0)
     Non magnetic calculation with spin-orbit

     celldm(1)=   8.752360  celldm(2)=   0.000000  celldm(3)=   0.000000
     celldm(4)=   0.000000  celldm(5)=   0.000000  celldm(6)=   0.000000

     crystal axes: (cart. coord. in units of alat)
               a(1) = (   0.000000   0.707107   0.707107 )
               a(2) = (   0.707107   0.000000   0.707107 )
               a(3) = (   0.707107   0.707107   0.000000 )

     reciprocal axes: (cart. coord. in units 2 pi/alat)
               b(1) = ( -0.707107  0.707107  0.707107 )
               b(2) = (  0.707107 -0.707107  0.707107 )
               b(3) = (  0.707107  0.707107 -0.707107 )

     PseudoPot. # 1 for Sn read from file:
     ../PseudopotentialDatabase/Sn.rel-pbe-dn-kjpaw_psl.1.0.0.UPF
     MD5 check sum: 6bcaba2b82cf8d008985ef5bb9854e68
     Pseudo is Projector augmented-wave + core cor, Zval = 14.0
     Generated using "atomic" code by A. Dal Corso  v.6.3
     Shape of augmentation charge: PSQ
     Using radial grid of 1243 points, 10 beta functions with:
                l(1) =   0
                l(2) =   0
                l(3) =   1
                l(4) =   1
                l(5) =   1
                l(6) =   1
                l(7) =   2
                l(8) =   2
                l(9) =   2
               l(10) =   2
     Q(r) pseudized with 0 coefficients

     atomic species   valence    mass     pseudopotential
        Sn            14.00   118.71000     Sn( 1.00)

     48 Sym. Ops., with inversion, found (24 have fractional translation)

                                    s                        frac. trans.

      isym =  1     identity

 cryst.   s( 1) = (     1          0          0      )
                  (     0          1          0      )
                  (     0          0          1      )

 cart.    s( 1) = (  1.0000000  0.0000000  0.0000000 )
                  (  0.0000000  1.0000000  0.0000000 )
                  (  0.0000000  0.0000000  1.0000000 )

      isym =  2     180 deg rotation - cart. axis [0,0,1]

[...]

 cryst.   s( 4) = (    -1          0          0      )
                  (    -1          0          1      )
                  (    -1          1          0      )

 cart.    s( 4) = (  1.0000000  0.0000000  0.0000000 )
                  (  0.0000000 -1.0000000  0.0000000 )
                  (  0.0000000  0.0000000 -1.0000000 )

[...]

 cryst.   s( 5) = (    -1          0          1      )    f =( -0.2500000 )
                  (     0         -1          1      )       ( -0.2500000 )
                  (     0          0          1      )       ( -0.2500000 )

 cart.    s( 5) = (  0.0000000  1.0000000  0.0000000 )    f =( -0.3535534 )
                  (  1.0000000  0.0000000  0.0000000 )       ( -0.3535534 )
                  (  0.0000000  0.0000000 -1.0000000 )       ( -0.3535534 )

[...]

 cryst.   s( 9) = (    -1          1          0      )    f =( -0.2500000 )
                  (     0          1          0      )       ( -0.2500000 )
                  (     0          1         -1      )       ( -0.2500000 )

 cart.    s( 9) = (  0.0000000  0.0000000  1.0000000 )    f =( -0.3535534 )
                  (  0.0000000 -1.0000000  0.0000000 )       ( -0.3535534 )
                  (  1.0000000  0.0000000  0.0000000 )       ( -0.3535534 )

[...]

 cryst.   s(10) = (     0          0         -1      )    f =( -0.2500000 )
                  (     0         -1          0      )       ( -0.2500000 )
                  (    -1          0          0      )       ( -0.2500000 )

 cart.    s(10) = (  0.0000000  0.0000000 -1.0000000 )    f =( -0.3535534 )
                  (  0.0000000 -1.0000000  0.0000000 )       ( -0.3535534 )
                  ( -1.0000000  0.0000000  0.0000000 )       ( -0.3535534 )

[...]

 cryst.   s(17) = (     0          0          1      )
                  (     1          0          0      )
                  (     0          1          0      )

 cart.    s(17) = (  0.0000000  1.0000000  0.0000000 )
                  (  0.0000000  0.0000000  1.0000000 )
                  (  1.0000000  0.0000000  0.0000000 )

[...]

      isym = 24     120 deg rotation - cart. axis [-1,-1,1]

[...]

      isym = 25     inversion

[...]

      isym = 26     inv. 180 deg rotation - cart. axis [0,0,1]

[...]

 cryst.   s(40) = (     0         -1          1      )
                  (     1         -1          0      )
                  (     0         -1          0      )

 cart.    s(40) = ( -1.0000000  0.0000000  0.0000000 )
                  (  0.0000000  0.0000000  1.0000000 )
                  (  0.0000000 -1.0000000  0.0000000 )

[...]

      isym = 48     inv. 120 deg rotation - cart. axis [-1,-1,1]

 cryst.   s(48) = (     0          1          0      )    f =( -0.2500000 )
                  (    -1          1          0      )       ( -0.2500000 )
                  (     0          1         -1      )       ( -0.2500000 )

 cart.    s(48) = (  0.0000000  0.0000000  1.0000000 )    f =( -0.3535534 )
                  ( -1.0000000  0.0000000  0.0000000 )       ( -0.3535534 )
                  (  0.0000000  1.0000000  0.0000000 )       ( -0.3535534 )

   Cartesian axes

     site n.     atom                  positions (alat units)
         1           Sn  tau(   1) = (   0.0000000   0.0000000   0.0000000  )
         2           Sn  tau(   2) = (   0.3535534   0.3535534   0.3535534  )

   Crystallographic axes

     site n.     atom                  positions (cryst. coord.)
         1           Sn  tau(   1) = (  0.0000000  0.0000000  0.0000000  )
         2           Sn  tau(   2) = (  0.2500000  0.2500000  0.2500000  )

     number of k points=   752  gaussian smearing, width (Ry)=  0.0001
                       cart. coord. in units 2pi/alat
        k(    1) = (   0.0000000   0.0000000   0.0000000), wk =   0.0000370
        k(    2) = (   0.0235702   0.0235702  -0.0235702), wk =   0.0002963
        k(    3) = (   0.0471405   0.0471405  -0.0471405), wk =   0.0002963
        k(    4) = (   0.0707107   0.0707107  -0.0707107), wk =   0.0002963
        k(    5) = (   0.0942809   0.0942809  -0.0942809), wk =   0.0002963
        k(    6) = (   0.1178511   0.1178511  -0.1178511), wk =   0.0002963
        k(    7) = (   0.1414214   0.1414214  -0.1414214), wk =   0.0002963
        k(    8) = (   0.1649916   0.1649916  -0.1649916), wk =   0.0002963
        k(    9) = (   0.1885618   0.1885618  -0.1885618), wk =   0.0002963
        k(   10) = (   0.2121320   0.2121320  -0.2121320), wk =   0.0002963
        k(   11) = (   0.2357023   0.2357023  -0.2357023), wk =   0.0002963
        k(   12) = (   0.2592725   0.2592725  -0.2592725), wk =   0.0002963
        k(   13) = (   0.2828427   0.2828427  -0.2828427), wk =   0.0002963
        k(   14) = (   0.3064129   0.3064129  -0.3064129), wk =   0.0002963
        k(   15) = (   0.3299832   0.3299832  -0.3299832), wk =   0.0002963
        k(   16) = (  -0.3535534  -0.3535534   0.3535534), wk =   0.0001481
        k(   17) = (   0.0471405   0.0000000   0.0000000), wk =   0.0002222
        k(   18) = (   0.0707107   0.0235702  -0.0235702), wk =   0.0008889
        k(   19) = (   0.0942809   0.0471405  -0.0471405), wk =   0.0008889
        k(   20) = (   0.1178511   0.0707107  -0.0707107), wk =   0.0008889
        k(   21) = (   0.1414214   0.0942809  -0.0942809), wk =   0.0008889
        k(   22) = (   0.1649916   0.1178511  -0.1178511), wk =   0.0008889
        k(   23) = (   0.1885618   0.1414214  -0.1414214), wk =   0.0008889
        k(   24) = (   0.2121320   0.1649916  -0.1649916), wk =   0.0008889
        k(   25) = (   0.2357023   0.1885618  -0.1885618), wk =   0.0008889
        k(   26) = (   0.2592725   0.2121320  -0.2121320), wk =   0.0008889
        k(   27) = (   0.2828427   0.2357023  -0.2357023), wk =   0.0008889
        k(   28) = (   0.3064129   0.2592725  -0.2592725), wk =   0.0008889
        k(   29) = (   0.3299832   0.2828427  -0.2828427), wk =   0.0008889
        k(   30) = (   0.3535534   0.3064129  -0.3064129), wk =   0.0008889
        k(   31) = (  -0.3299832  -0.3771236   0.3771236), wk =   0.0008889
        k(   32) = (  -0.3064129  -0.3535534   0.3535534), wk =   0.0008889
        k(   33) = (  -0.2828427  -0.3299832   0.3299832), wk =   0.0008889
        k(   34) = (  -0.2592725  -0.3064129   0.3064129), wk =   0.0008889
        k(   35) = (  -0.2357023  -0.2828427   0.2828427), wk =   0.0008889
        k(   36) = (  -0.2121320  -0.2592725   0.2592725), wk =   0.0008889
        k(   37) = (  -0.1885618  -0.2357023   0.2357023), wk =   0.0008889
        k(   38) = (  -0.1649916  -0.2121320   0.2121320), wk =   0.0008889
        k(   39) = (  -0.1414214  -0.1885618   0.1885618), wk =   0.0008889
        k(   40) = (  -0.1178511  -0.1649916   0.1649916), wk =   0.0008889
        k(   41) = (  -0.0942809  -0.1414214   0.1414214), wk =   0.0008889
        k(   42) = (  -0.0707107  -0.1178511   0.1178511), wk =   0.0008889
        k(   43) = (  -0.0471405  -0.0942809   0.0942809), wk =   0.0008889
        k(   44) = (  -0.0235702  -0.0707107   0.0707107), wk =   0.0008889
        k(   45) = (   0.0000000  -0.0471405   0.0471405), wk =   0.0004444
        k(   46) = (   0.0942809   0.0000000   0.0000000), wk =   0.0002222
        k(   47) = (   0.1178511   0.0235702  -0.0235702), wk =   0.0008889
        k(   48) = (   0.1414214   0.0471405  -0.0471405), wk =   0.0008889
        k(   49) = (   0.1649916   0.0707107  -0.0707107), wk =   0.0008889
        k(   50) = (   0.1885618   0.0942809  -0.0942809), wk =   0.0008889
        k(   51) = (   0.2121320   0.1178511  -0.1178511), wk =   0.0008889
        k(   52) = (   0.2357023   0.1414214  -0.1414214), wk =   0.0008889
        k(   53) = (   0.2592725   0.1649916  -0.1649916), wk =   0.0008889
        k(   54) = (   0.2828427   0.1885618  -0.1885618), wk =   0.0008889
        k(   55) = (   0.3064129   0.2121320  -0.2121320), wk =   0.0008889
        k(   56) = (   0.3299832   0.2357023  -0.2357023), wk =   0.0008889
        k(   57) = (   0.3535534   0.2592725  -0.2592725), wk =   0.0008889
        k(   58) = (   0.3771236   0.2828427  -0.2828427), wk =   0.0008889
        k(   59) = (  -0.3064129  -0.4006938   0.4006938), wk =   0.0008889
        k(   60) = (  -0.2828427  -0.3771236   0.3771236), wk =   0.0008889
[...]
        k(  738) = (  -0.1178511  -0.4006938   0.6835366), wk =   0.0017778
        k(  739) = (  -0.0942809  -0.3771236   0.6599663), wk =   0.0017778
        k(  740) = (  -0.0707107  -0.3535534   0.6363961), wk =   0.0008889
        k(  741) = (  -0.0942809  -0.4242641   0.7071068), wk =   0.0008889
        k(  742) = (  -0.0707107  -0.4006938   0.6835366), wk =   0.0017778
        k(  743) = (  -0.0471405  -0.3771236   0.6599663), wk =   0.0017778
        k(  744) = (  -0.0235702  -0.3535534   0.6363961), wk =   0.0017778
        k(  745) = (   0.0000000  -0.3299832   0.6128259), wk =   0.0008889
        k(  746) = (  -0.0471405  -0.4242641   0.7071068), wk =   0.0008889
        k(  747) = (  -0.0235702  -0.4006938   0.6835366), wk =   0.0017778
        k(  748) = (  -0.0000000  -0.3771236   0.6599663), wk =   0.0008889
        k(  749) = (  -0.7071068   0.2828427   0.0000000), wk =   0.0004444
        k(  750) = (  -0.0471405  -0.3771236   0.7071068), wk =   0.0008889
        k(  751) = (  -0.0235702  -0.3535534   0.6835366), wk =   0.0008889
        k(  752) = (  -0.7071068   0.3299832   0.0000000), wk =   0.0004444

                       cryst. coord.
        k(    1) = (   0.0000000   0.0000000   0.0000000), wk =   0.0000370
        k(    2) = (   0.0000000   0.0000000   0.0333333), wk =   0.0002963
        k(    3) = (   0.0000000   0.0000000   0.0666667), wk =   0.0002963
        k(    4) = (   0.0000000   0.0000000   0.1000000), wk =   0.0002963
        k(    5) = (   0.0000000   0.0000000   0.1333333), wk =   0.0002963
        k(    6) = (   0.0000000   0.0000000   0.1666667), wk =   0.0002963
        k(    7) = (   0.0000000   0.0000000   0.2000000), wk =   0.0002963
        k(    8) = (   0.0000000   0.0000000   0.2333333), wk =   0.0002963
        k(    9) = (   0.0000000   0.0000000   0.2666667), wk =   0.0002963
        k(   10) = (   0.0000000   0.0000000   0.3000000), wk =   0.0002963
        k(   11) = (   0.0000000   0.0000000   0.3333333), wk =   0.0002963
        k(   12) = (   0.0000000   0.0000000   0.3666667), wk =   0.0002963
        k(   13) = (   0.0000000   0.0000000   0.4000000), wk =   0.0002963
        k(   14) = (   0.0000000   0.0000000   0.4333333), wk =   0.0002963
        k(   15) = (   0.0000000   0.0000000   0.4666667), wk =   0.0002963
        k(   16) = (   0.0000000   0.0000000  -0.5000000), wk =   0.0001481
        k(   17) = (   0.0000000   0.0333333   0.0333333), wk =   0.0002222
        k(   18) = (   0.0000000   0.0333333   0.0666667), wk =   0.0008889
        k(   19) = (   0.0000000   0.0333333   0.1000000), wk =   0.0008889
        k(   20) = (   0.0000000   0.0333333   0.1333333), wk =   0.0008889
        k(   21) = (   0.0000000   0.0333333   0.1666667), wk =   0.0008889
        k(   22) = (   0.0000000   0.0333333   0.2000000), wk =   0.0008889
        k(   23) = (   0.0000000   0.0333333   0.2333333), wk =   0.0008889
        k(   24) = (   0.0000000   0.0333333   0.2666667), wk =   0.0008889
        k(   25) = (   0.0000000   0.0333333   0.3000000), wk =   0.0008889
        k(   26) = (   0.0000000   0.0333333   0.3333333), wk =   0.0008889
        k(   27) = (   0.0000000   0.0333333   0.3666667), wk =   0.0008889
        k(   28) = (   0.0000000   0.0333333   0.4000000), wk =   0.0008889
        k(   29) = (   0.0000000   0.0333333   0.4333333), wk =   0.0008889
        k(   30) = (   0.0000000   0.0333333   0.4666667), wk =   0.0008889
        k(   31) = (   0.0000000   0.0333333  -0.5000000), wk =   0.0008889
        k(   32) = (   0.0000000   0.0333333  -0.4666667), wk =   0.0008889
        k(   33) = (   0.0000000   0.0333333  -0.4333333), wk =   0.0008889
        k(   34) = (   0.0000000   0.0333333  -0.4000000), wk =   0.0008889
        k(   35) = (   0.0000000   0.0333333  -0.3666667), wk =   0.0008889
        k(   36) = (   0.0000000   0.0333333  -0.3333333), wk =   0.0008889
        k(   37) = (   0.0000000   0.0333333  -0.3000000), wk =   0.0008889
        k(   38) = (   0.0000000   0.0333333  -0.2666667), wk =   0.0008889
        k(   39) = (   0.0000000   0.0333333  -0.2333333), wk =   0.0008889
        k(   40) = (   0.0000000   0.0333333  -0.2000000), wk =   0.0008889
        k(   41) = (   0.0000000   0.0333333  -0.1666667), wk =   0.0008889
        k(   42) = (   0.0000000   0.0333333  -0.1333333), wk =   0.0008889
        k(   43) = (   0.0000000   0.0333333  -0.1000000), wk =   0.0008889
        k(   44) = (   0.0000000   0.0333333  -0.0666667), wk =   0.0008889
        k(   45) = (   0.0000000   0.0333333  -0.0333333), wk =   0.0004444
        k(   46) = (   0.0000000   0.0666667   0.0666667), wk =   0.0002222
        k(   47) = (   0.0000000   0.0666667   0.1000000), wk =   0.0008889
        k(   48) = (   0.0000000   0.0666667   0.1333333), wk =   0.0008889
        k(   49) = (   0.0000000   0.0666667   0.1666667), wk =   0.0008889
        k(   50) = (   0.0000000   0.0666667   0.2000000), wk =   0.0008889
        k(   51) = (   0.0000000   0.0666667   0.2333333), wk =   0.0008889
        k(   52) = (   0.0000000   0.0666667   0.2666667), wk =   0.0008889
        k(   53) = (   0.0000000   0.0666667   0.3000000), wk =   0.0008889
        k(   54) = (   0.0000000   0.0666667   0.3333333), wk =   0.0008889
        k(   55) = (   0.0000000   0.0666667   0.3666667), wk =   0.0008889
        k(   56) = (   0.0000000   0.0666667   0.4000000), wk =   0.0008889
        k(   57) = (   0.0000000   0.0666667   0.4333333), wk =   0.0008889
        k(   58) = (   0.0000000   0.0666667   0.4666667), wk =   0.0008889
        k(   59) = (   0.0000000   0.0666667  -0.5000000), wk =   0.0008889
        k(   60) = (   0.0000000   0.0666667  -0.4666667), wk =   0.0008889
[...]
        k(  738) = (   0.2000000   0.4000000  -0.3666667), wk =   0.0017778
        k(  739) = (   0.2000000   0.4000000  -0.3333333), wk =   0.0017778
        k(  740) = (   0.2000000   0.4000000  -0.3000000), wk =   0.0008889
        k(  741) = (   0.2000000   0.4333333  -0.3666667), wk =   0.0008889
        k(  742) = (   0.2000000   0.4333333  -0.3333333), wk =   0.0017778
        k(  743) = (   0.2000000   0.4333333  -0.3000000), wk =   0.0017778
        k(  744) = (   0.2000000   0.4333333  -0.2666667), wk =   0.0017778
        k(  745) = (   0.2000000   0.4333333  -0.2333333), wk =   0.0008889
        k(  746) = (   0.2000000   0.4666667  -0.3333333), wk =   0.0008889
        k(  747) = (   0.2000000   0.4666667  -0.3000000), wk =   0.0017778
        k(  748) = (   0.2000000   0.4666667  -0.2666667), wk =   0.0008889
        k(  749) = (   0.2000000  -0.5000000  -0.3000000), wk =   0.0004444
        k(  750) = (   0.2333333   0.4666667  -0.3000000), wk =   0.0008889
        k(  751) = (   0.2333333   0.4666667  -0.2666667), wk =   0.0008889
        k(  752) = (   0.2333333  -0.5000000  -0.2666667), wk =   0.0004444

     Largest allocated arrays     est. size (Mb)     dimensions
     Largest temporary arrays     est. size (Mb)     dimensions

     Check: negative/imaginary core charge=   -0.000003    0.000000

     Initial potential from superposition of free atoms

     starting charge   27.99781, renormalised to   28.00000
     Starting wfc are   36 randomized atomic wfcs
     Checking if some PAW data can be deallocated...

     Self-consistent Calculation

     iteration #  1     ecut=    40.00 Ry     beta=0.70
     Davidson diagonalization with overlap
     ethr =  1.00E-02,  avg # of iterations =  3.5

     Threshold (ethr) on eigenvalues was too large:
     Diagonalizing with lowered threshold

     Davidson diagonalization with overlap
     ethr =  6.13E-05,  avg # of iterations =  3.5

     total energy              =    -885.82663458 Ry
     Harris-Foulkes estimate   =    -885.82848814 Ry
     estimated scf accuracy    <       0.02067557 Ry

[...]

     total energy              =    -885.82838526 Ry
     Harris-Foulkes estimate   =    -885.82838350 Ry
     estimated scf accuracy    <       0.00000478 Ry

     iteration #  5     ecut=    40.00 Ry     beta=0.70
     Davidson diagonalization with overlap
     ethr =  1.71E-08,  avg # of iterations =  2.0

     End of self-consistent calculation

          k = 0.0000 0.0000 0.0000 (  2085 PWs)   bands (ev):

   -14.5615 -14.5615 -14.5615 -14.5615 -14.4665 -14.4665 -14.4665 -14.4665
   -13.6497 -13.6497 -13.4487 -13.4487 -13.4487 -13.4487 -13.4041 -13.4041
   -13.4041 -13.4041 -13.2888 -13.2888  -2.8486  -2.8486   6.7547   6.7547
     7.1948   7.1948   7.8627   7.8627   7.8627   7.8627   9.4035   9.4035
     9.8758   9.8758   9.8758   9.8758

     occupation numbers
     1.0000   1.0000   1.0000   1.0000   1.0000   1.0000   1.0000   1.0000
     1.0000   1.0000   1.0000   1.0000   1.0000   1.0000   1.0000   1.0000
     1.0000   1.0000   1.0000   1.0000   1.0000   1.0000   1.0000   1.0000
     1.0000   1.0000   0.0000   0.0000   0.0000   0.0000   0.0000   0.0000
     0.0000   0.0000   0.0000   0.0000

[...]

          k =-0.3536-0.3536 0.3536 (  2036 PWs)   bands (ev):

[...]

          k = 0.0000-0.3300 0.6128 (  2026 PWs)   bands (ev):

[...]

          k =-0.7071 0.3300 0.0000 (  2016 PWs)   bands (ev):

   -14.5537 -14.5537 -14.5233 -14.5233 -14.4841 -14.4841 -14.4388 -14.4388
   -13.5626 -13.5626 -13.5109 -13.5109 -13.4534 -13.4534 -13.4368 -13.4368
   -13.3253 -13.3253 -13.2721 -13.2721   0.1785   0.1785   0.2281   0.2281
     4.5461   4.5461   4.7216   4.7216  10.6577  10.6577  10.9341  10.9341
    11.7311  11.7311  11.7519  11.7519

     occupation numbers
     1.0000   1.0000   1.0000   1.0000   1.0000   1.0000   1.0000   1.0000
     1.0000   1.0000   1.0000   1.0000   1.0000   1.0000   1.0000   1.0000
     1.0000   1.0000   1.0000   1.0000   1.0000   1.0000   1.0000   1.0000
     1.0000   1.0000   1.0000   1.0000   0.0000   0.0000   0.0000   0.0000
     0.0000   0.0000   0.0000   0.0000

     the Fermi energy is     7.6723 ev

!    total energy              =    -885.82838604 Ry
     Harris-Foulkes estimate   =    -885.82838593 Ry
     estimated scf accuracy    <       0.00000010 Ry

     total all-electron energy =    -24716.528136 Ry

     The total energy is the sum of the following terms:

     one-electron contribution =    -148.92332708 Ry
     hartree contribution      =      93.71229730 Ry
     xc contribution           =     -96.16583189 Ry
     ewald contribution        =    -170.59904351 Ry
     one-center paw contrib.   =    -563.85248086 Ry
     smearing contrib. (-TS)   =      -0.00000001 Ry

     convergence has been achieved in   5 iterations

     Writing output data file Sn.save

     General routines

     Parallel routines

     PAW routines

   This run was terminated on:  21:19: 3   8Mar2020

   JOB DONE.